ITEM: TIMESTEP
0
ITEM: NUMBER OF ATOMS
6150
ITEM: BOX BOUNDS pp pp pp
0.0000000000000000e+00 4.5679949999999998e+01
0.0000000000000000e+00 4.6885919999999999e+01
5.8688759057862665e+00 3.2955980304847735e+01
ITEM: ATOMS id type xu yu zu 
1858 2 -126.783 54.3897 -19.7196 
6086 4 4.78361 5.94577 62.0217 
5160 1 96.1898 -40.871 63.8929 
2822 1 53.3067 54.2654 -18.7718 
5007 1 138.604 100.061 6.84035 
2821 2 53.5094 55.117 -19.159 
5158 2 95.897 -40.9728 64.7985 
5005 2 139.19 100.591 7.38072 
1370 1 98.5123 51.935 -44.8603 
1371 1 97.547 52.8367 -45.5997 
1369 2 98.4295 52.8141 -45.2299 
1725 1 4.0972 -38.4339 38.4187 
4638 1 6.16006 8.61974 -19.123 
4636 2 5.23873 8.68417 -18.8716 
5006 1 139.979 100.057 7.47395 
1599 1 51.9427 2.42034 -17.7243 
4637 1 4.94048 7.77619 -18.8182 
2976 1 -87.6435 49.9241 -19.5827 
1597 2 51.694 2.74373 -16.8584 
2823 1 54.3189 54.9714 -19.6487 
2974 2 -87.763 50.4371 -18.7835 
2975 1 -87.3155 51.2646 -18.9603 
1390 2 140.924 56.5719 60.2309 
6021 3 49.6065 97.3631 37.9888 
305 1 99.1213 11.3644 36.3573 
4115 1 92.9162 3.05426 35.5691 
4250 1 47.6738 101.466 10.2104 
1392 1 141.192 56.3862 61.1305 
304 2 99.2511 10.5555 36.8524 
1723 2 3.33912 -38.3827 37.8365 
4251 1 47.3179 100.562 9.04896 
2571 1 6.64584 96.9582 34.2851 
1724 1 3.69016 -38.039 37.015 
4438 2 4.65252 0.0111094 62.3311 
4249 2 47.087 100.753 9.95811 
306 1 99.4012 9.88671 36.1843 
2308 2 6.1999 -89.2597 -20.856 
341 1 10.9877 52.1354 64.2676 
1185 1 10.63 53.9977 -16.8328 
3908 1 -39.8387 58.0105 37.921 
340 2 10.1463 52.4058 63.8999 
342 1 10.1747 52.1075 62.9908 
1859 1 -126.2 54.627 -20.4407 
2055 1 101.121 50.1765 89.256 
5159 1 95.2887 -40.2469 64.9371 
2062 2 -34.4144 -129.073 115.692 
1184 1 10.5977 54.8729 -18.0677 
6084 4 10.2977 51.6212 61.4684 
1860 1 -126.85 53.4362 -19.769 
1183 2 10.6856 54.9106 -17.1152 
2054 1 99.9291 49.2465 89.3353 
2053 2 100.86 49.3033 89.5491 
5078 1 51.4076 1.13764 12.0191 
627 1 46.3033 -85.1911 11.6359 
3644 1 184.784 -45.8369 9.97092 
1598 1 52.4648 3.21988 -16.5496 
5936 1 45.9555 46.9708 -20.1098 
4486 2 100.353 47.223 10.5279 
3735 1 47.042 57.541 35.798 
5085 1 100.008 4.63176 10.7014 
5083 2 99.3982 4.11478 11.2273 
3733 2 47.106 58.3003 36.3774 
2702 1 1.69114 5.4147 11.5382 
1774 2 -44.016 9.4412 7.56893 
1080 1 7.28474 147.429 -16.6767 
1776 1 -43.9195 8.49001 7.61536 
2569 2 6.92684 96.1533 34.7202 
2701 2 1.98134 4.53629 11.7839 
5225 1 57.0527 52.3097 5.93975 
2703 1 1.24185 4.16513 12.2652 
3643 2 185.637 -45.5171 10.2665 
2309 1 5.64327 -88.7583 -20.2602 
1775 1 -43.5104 9.69631 6.79718 
654 1 -41.1208 100.202 -20.835 
4390 2 9.15623 57.3369 33.3474 
4488 1 100.308 48.0147 9.99173 
2139 1 97.5731 55.0685 66.1495 
4114 2 92.0301 3.38752 35.4275 
4440 1 4.35212 0.713694 62.9076 
3734 1 46.4482 58.1417 37.0544 
1078 2 7.5833 147.98 -15.953 
3645 1 185.798 -45.9851 11.0858 
3887 1 53.3996 10.5882 -15.3005 
5579 1 100.838 51.7653 5.9318 
2570 1 6.69855 95.4559 34.1056 
5029 2 0.384016 -46.0638 -43.3418 
5084 1 99.4738 4.47861 12.1095 
4392 1 8.60232 57.3154 34.1277 
2063 1 -35.1812 -129.556 115.383 
1079 1 8.17998 148.608 -16.3599 
5030 1 0.218477 -45.3614 -42.7129 
4116 1 91.8266 3.15124 34.5225 
577 2 94.2459 95.8933 5.91247 
1520 1 -35.2732 9.71922 12.4364 
1519 2 -35.954 9.1172 12.1358 
5079 1 52.6336 0.421953 12.545 
625 2 45.8011 -84.7599 12.3273 
1521 1 -35.5611 8.66361 11.3901 
2137 2 96.7502 55.3526 66.5475 
443 1 -36.7534 94.4537 39.3547 
5976 1 94.2658 -36.299 -14.4525 
3558 1 -38.2029 94.0621 -21.1505 
5231 1 7.63216 5.44857 13.6606 
5232 1 8.88241 6.20583 14.0546 
5230 2 8.56633 5.33009 13.8324 
2167 2 -44.7676 -45.9949 -13.2319 
5733 1 6.13508 53.3495 67.0542 
444 1 -36.4565 95.1798 40.6496 
4554 1 50.5562 2.7532 40.9201 
278 1 11.1971 1.81717 -13.2714 
5731 2 5.97294 52.7364 67.7712 
5732 1 5.24977 53.1268 68.2619 
2259 1 -36.3907 97.5751 14.1142 
4552 2 49.9995 3.28154 40.3481 
2257 2 -35.9258 96.7718 14.3483 
1166 1 -38.0546 55.2029 68.9263 
5674 2 3.54798 101.527 14.7735 
4071 1 2.46105 50.4963 14.387 
5676 1 3.6859 102.361 14.3246 
1165 2 -38.9746 55.4652 68.8936 
5932 2 -82.1996 7.8678 41.7494 
2168 1 -45.2464 -45.3042 -13.69 
5933 1 -81.9864 8.254 40.8999 
5974 2 94.0626 -36.9432 -13.7744 
3561 1 6.34016 11.0364 14.2495 
4070 1 1.02067 50.1929 14.7408 
4195 2 -90.6088 7.5595 95.859 
4553 1 50.3098 4.17841 40.4729 
4196 1 -89.6604 7.66932 95.7891 
2169 1 -43.9993 -46.1579 -13.7791 
4112 1 6.04828 48.2178 68.516 
442 2 -37.0329 94.5177 40.268 
4197 1 -90.9559 7.95779 95.0609 
5975 1 93.4596 -37.5546 -14.1972 
3888 1 53.6424 9.93703 -13.9555 
2138 1 97.0123 55.7735 67.3663 
3886 2 53.2175 10.69 -14.3663 
5077 2 51.6833 0.470778 12.648 
5344 2 -78.6744 3.54027 -46.7347 
5363 1 14.2562 0.470954 38.1797 
555 1 11.8408 96.7716 65.0523 
6015 3 11.6558 48.4045 35.3169 
3792 1 59.4315 57.2545 9.47336 
3791 1 60.2147 56.0846 8.91676 
3790 2 60.2607 57.0313 9.05045 
4786 2 -33.3244 51.6334 92.3334 
4788 1 -32.4182 51.5165 92.0481 
5346 1 -79.4881 4.04267 -46.7761 
5345 1 -78.0223 4.16525 -46.4178 
2064 1 -34.1354 -129.544 116.478 
5240 1 103.169 9.86944 10.0765 
553 2 11.8543 95.8738 64.7207 
5239 2 103.586 10.6459 9.70302 
4536 1 -30.8601 54.0077 6.4933 
4534 2 -30.6239 53.9388 7.41834 
2676 1 60.6263 -42.9689 93.513 
5241 1 103.105 11.382 10.0804 
402 1 -31.3141 0.176831 60.824 
4535 1 -30.5416 52.9982 7.57558 
554 1 11.6135 95.3357 65.4748 
1461 1 14.914 94.3621 36.0873 
5572 2 15.1156 51.3088 35.1432 
4787 1 -33.2569 52.1283 93.1499 
1693 2 -79.5699 47.6496 60.1692 
1906 2 -76.632 11.4707 -41.724 
1160 1 60.8113 -40.8273 64.3823 
1907 1 -77.4784 11.3069 -42.14 
5573 1 14.994 51.4203 36.0861 
6106 4 60.5667 51.2089 10.5448 
277 2 11.6798 1.05025 -13.5797 
549 1 58.3851 53.8006 13.8446 
279 1 12.5097 1.0818 -13.104 
1405 2 14.1798 48.1811 41.4476 
3823 2 11.536 -36.6252 -40.2012 
3824 1 11.5724 -37.0142 -39.3274 
548 1 58.1612 52.3118 14.0032 
547 2 58.3607 52.9818 13.3494 
2675 1 59.663 -42.5866 94.6165 
3825 1 11.7538 -35.7034 -40.0628 
1407 1 14.4575 49.0427 41.1364 
1406 1 14.789 47.569 41.0348 
2674 2 60.3891 -43.1774 94.4166 
5748 1 67.4546 2.0551 65.0875 
2802 1 153.815 4.98544 91.3606 
5791 2 -25.7708 0.781592 7.70866 
2800 2 154.752 4.79032 91.3354 
58 2 -26.813 150.759 6.07269 
3382 2 17.6756 7.78626 6.81378 
146 1 19.9725 2.50519 63.6127 
2230 2 62.0697 104.927 34.4352 
147 1 18.9191 3.58132 63.7678 
3384 1 16.8031 7.55795 7.13449 
145 2 19.4057 3.08795 63.1075 
2801 1 155.107 5.4007 90.6892 
5698 2 66.7037 -41.7435 61.7241 
5574 1 15.5618 50.4664 35.0568 
5700 1 66.2165 -41.9698 60.9319 
5699 1 67.4345 -42.3614 61.7413 
3846 1 21.0817 58.5412 33.2554 
1960 2 15.8827 -37.4501 11.3584 
1961 1 15.7824 -37.0411 10.4988 
5792 1 -25.8725 1.66828 8.05461 
866 1 65.6938 -35.9084 10.1649 
4045 2 19.1466 53.4376 8.76103 
4046 1 19.7023 53.8787 9.40354 
4047 1 19.7544 52.9189 8.23397 
5746 2 66.8884 1.76847 64.3709 
5747 1 66.5458 0.922553 64.6595 
59 1 -27.3506 149.967 6.0883 
3662 1 108.996 47.8874 62.8484 
3661 2 108.368 48.5613 62.5869 
3663 1 108.91 49.2836 62.2693 
3383 1 18.2754 7.36855 7.43186 
2712 1 17.4892 53.494 -41.7589 
2711 1 17.6028 54.966 -42.094 
4779 1 -23.4643 54.5085 64.5848 
2255 1 -71.4615 55.7883 38.0228 
2254 2 -71.1378 54.9322 37.7425 
3217 2 65.3668 0.233219 39.5582 
3104 1 22.3433 53.5026 61.1626 
3844 2 21.1247 57.9197 33.9821 
4518 1 -27.7348 3.87888 -15.2541 
1908 1 -76.0936 10.7189 -41.9715 
2256 1 -71.7241 54.304 38.1644 
1161 1 61.1608 -39.9055 63.2333 
2611 2 22.1578 3.51304 12.0198 
3216 1 61.7747 -92.0287 36.8453 
1962 1 15.5944 -38.3537 11.2292 
3214 2 61.2785 -92.0017 37.6635 
6018 3 17.6257 47.7796 38.8277 
4778 1 -23.1228 55.7365 65.4017 
3845 1 20.3687 57.347 33.8532 
4516 2 -27.4506 3.20375 -14.6379 
2231 1 61.6098 104.367 35.061 
151 2 -23.3219 103.892 12.4841 
60 1 -27.4428 151.478 6.12746 
5793 1 -26.1046 0.213381 8.40286 
153 1 -23.7365 104.741 12.3307 
2710 2 18.0662 54.2511 -41.6578 
5667 1 19.2137 57.7537 39.496 
2232 1 61.9516 104.491 33.5914 
3215 1 61.0297 -91.0828 37.763 
1159 2 61.2009 -39.975 64.1872 
5665 2 19.0678 57.1084 38.8041 
1769 1 67.7413 -83.0413 -18.7365 
5666 1 18.1335 56.9073 38.8567 
1768 2 68.4313 -83.1196 -18.0777 
2613 1 21.4827 4.18521 11.9269 
3248 1 -117.189 0.7113 32.9622 
850 2 65.6509 4.66318 14.0159 
525 1 -22.9576 6.16927 41.8966 
523 2 -23.4367 6.37728 41.0944 
852 1 66.0236 5.50689 13.7601 
2581 2 22.5993 141.794 13.3803 
1940 1 -24.5448 149.885 13.45 
1939 2 -24.9883 149.489 14.2003 
1941 1 -24.5308 148.66 14.3395 
3523 2 17.4153 104.465 68.6293 
4517 1 -26.8729 3.66302 -14.0284 
4006 2 108.124 -46.7602 68.086 
528 1 -74.9769 -42.8585 14.1109 
2582 1 22.3872 142.669 13.0541 
526 2 -74.5826 -42.4646 14.8891 
3219 1 65.6249 0.330832 40.4748 
3525 1 18.0248 105.193 68.5068 
4007 1 108.841 -46.5967 68.6977 
5632 2 51.0493 69.7879 32.9739 
3309 1 0.342244 67.9295 88.3111 
2799 1 46.5574 107.749 -20.7197 
5515 2 53.2846 21.4716 33.849 
5517 1 52.5816 22.0811 33.6244 
574 2 94.8991 114.469 32.9604 
3907 2 -40.0118 58.8627 37.521 
5516 1 53.7119 21.28 33.0142 
623 1 0.0577512 -28.2542 -18.4215 
3307 2 0.637933 68.6187 87.7163 
3308 1 0.0367312 69.3465 87.8747 
2797 2 45.9954 108.357 -20.24 
245 1 137.155 110.572 65.3975 
2589 1 5.41997 65.4193 6.47901 
208 2 96.6527 23.355 62.7387 
6131 4 7.26432 -34.3819 8.36826 
244 2 137.291 109.686 65.0619 
5824 2 2.70025 157.004 39.2441 
622 2 0.288028 -27.4367 -17.98 
3253 2 5.25691 109.714 -19.8209 
3909 1 -39.3677 58.9324 36.8165 
3207 1 9.87287 12.9545 61.6427 
746 1 52.8533 -34.5573 33.7466 
4256 1 -36.738 17.317 -47.6888 
3639 1 47.4669 -34.2212 12.027 
3255 1 5.45446 110.304 -20.5485 
2407 2 95.0979 17.2986 -17.8439 
1061 1 -40.578 108.155 34.8926 
973 2 -36.9078 13.1108 66.5546 
3804 1 3.66261 13.9722 6.74496 
3637 2 48.2833 -34.7079 11.9132 
3802 2 3.04375 14.149 6.03645 
4736 1 1.20678 20.8748 -17.6725 
586 2 -39.3059 19.1231 61.7833 
274 2 -125.704 -23.9543 8.34723 
2615 1 -35.5795 153.54 -17.0217 
3205 2 9.32458 13.6477 62.0104 
3206 1 8.4638 13.2424 62.1155 
1060 2 -40.7419 107.212 34.8997 
3677 1 92.576 112.617 37.4004 
3401 1 92.5326 15.0818 9.58551 
1196 1 54.2913 67.9946 65.1276 
3409 2 50.9197 18.7603 -70.4672 
1947 1 55.5247 -24.8686 35.9085 
4599 1 102.697 -31.0195 10.0905 
3638 1 48.8757 -34.3396 12.5686 
3676 2 92.8097 112.65 38.328 
1258 2 102.698 62.541 8.41686 
4598 1 102.15 -32.0522 11.0533 
6007 3 -42.3505 59.8444 9.48262 
4763 1 56.9157 -27.5956 -14.8403 
5825 1 3.10005 157.803 38.8999 
158 1 7.47628 13.6937 -17.4963 
4597 2 102.667 -31.2473 11.0198 
5527 2 10.3517 19.1426 63.5914 
5529 1 9.59706 18.6937 63.9724 
903 1 6.69023 -29.3179 37.0683 
3402 1 92.7675 14.5318 8.19472 
2926 2 4.67851 61.7333 10.6207 
1945 2 54.7417 -25.3176 36.2272 
2296 2 141.42 20.8879 62.7585 
4764 1 55.6922 -26.7059 -14.8966 
3411 1 50.3781 18.2238 -71.0461 
2408 1 94.23 16.9031 -17.9252 
4735 2 1.46492 21.722 -17.3093 
2927 1 4.73151 62.2277 11.4386 
1946 1 54.1276 -25.2786 35.494 
2298 1 140.966 20.5632 63.536 
6090 4 3.44116 20.5563 11.4149 
5826 1 2.10364 156.717 38.5527 
157 2 7.51888 14.439 -16.8971 
4737 1 2.28863 21.547 -16.8542 
5528 1 10.0852 20.0607 63.5423 
1320 1 50.7368 -23.9388 66.0919 
209 1 96.3413 22.4687 62.9226 
975 1 -37.251 12.2258 66.6784 
3254 1 5.7059 110.101 -19.0694 
575 1 95.0584 114.496 33.9039 
1384 2 52.9857 -28.6746 39.4097 
3410 1 50.3276 19.4412 -70.1476 
159 1 7.82968 14.0661 -16.0721 
905 1 2.66138 22.3484 39.3822 
2928 1 5.58699 61.5146 10.4132 
3678 1 93.478 113.333 38.383 
1318 2 51.0485 -24.8369 66.203 
901 2 7.12632 -29.78 36.3524 
1260 1 101.863 62.1341 8.18564 
1319 1 50.2785 -25.3806 66.0364 
3400 2 93.2117 14.7076 9.02421 
588 1 -38.9886 18.566 62.4941 
587 1 -38.6248 19.7872 61.6766 
1062 1 -39.8754 106.819 35.0028 
1195 2 53.8121 67.8361 65.9409 
2297 1 142.189 20.3238 62.6767 
2614 2 -34.9507 153.169 -16.4021 
1385 1 52.1062 -28.5447 39.0551 
2616 1 -35.3883 153.227 -15.5528 
1386 1 53.4123 -27.8234 39.3114 
1197 1 52.9968 68.3271 65.8388 
2409 1 95.6936 16.649 -18.2174 
902 1 7.30281 -30.6532 36.7025 
3891 1 -45.1141 21.4983 13.8218 
4762 2 56.0976 -27.4038 -14.3819 
974 1 -37.1888 13.5884 67.3351 
3782 1 55.894 -30.4374 12.9087 
904 2 2.48691 23.1019 39.9462 
5811 1 -40.5436 106.483 -12.9243 
3781 2 55.1614 -30.1082 13.4295 
1400 1 -42.2768 -74.1259 12.7763 
3783 1 54.8345 -29.3562 12.9356 
2817 1 -34.2864 116.731 40.8257 
1879 2 6.05915 63.0421 40.352 
1881 1 6.78421 62.6363 40.8273 
1454 1 8.26943 -72.8154 13.4245 
3890 1 -43.7604 21.108 14.376 
5810 1 -40.0358 107.177 -14.1702 
6038 3 46.9437 18.206 40.7363 
3375 1 56.328 66.2037 41.487 
1188 1 142.699 -24.5414 -13.4338 
3690 1 -45.1357 15.345 -94.9001 
5809 2 -40.7939 107.126 -13.5882 
3688 2 -45.0525 15.8799 -94.1107 
1453 2 8.24657 -72.895 14.3781 
1455 1 9.16718 -72.9236 14.6386 
5398 2 99.5322 61.6777 41.5374 
5399 1 99.909 62.5286 41.3134 
3889 2 -44.6832 20.8538 14.3832 
1187 1 143.865 -24.5726 -12.4691 
2815 2 -34.8383 116.126 41.3207 
1880 1 6.35002 63.9397 40.1913 
1186 2 142.963 -24.2655 -12.5561 
6027 3 3.83216 62.3366 41.3772 
1401 1 -41.5983 -74.3396 14.1127 
1399 2 -42.3729 -74.5889 13.6085 
1582 2 45.9988 60.1128 -95.6896 
591 1 -30.8052 117.048 64.2431 
4783 2 -31.6955 69.9279 34.4036 
4785 1 -30.8062 69.7246 34.1136 
4100 1 58.1138 16.9504 11.3123 
275 1 -124.755 -23.8557 8.2753 
2504 1 14.0122 -27.057 34.0979 
3496 2 -78.3583 -31.8353 -20.7705 
3498 1 -77.6328 -32.4235 -20.561 
764 1 -32.8295 -73.4796 64.034 
765 1 -33.6502 -72.2397 63.7495 
3756 1 60.0532 67.6612 38.7916 
5940 1 59.7721 60.1222 8.19903 
3754 2 60.8926 67.8415 39.2148 
5525 1 -79.3834 19.0437 35.6993 
2503 2 14.7527 -26.802 33.5476 
4101 1 58.6489 18.2064 10.658 
5938 2 60.2229 59.9216 7.37883 
763 2 -33.2255 -72.7196 64.4605 
4099 2 58.5483 17.7802 11.5092 
1259 1 103.269 62.3556 7.67185 
2505 1 14.4797 -25.9775 33.1451 
5524 2 -78.4458 18.888 35.8135 
5526 1 -78.3454 17.9417 35.7103 
3044 1 14.0803 -28.663 95.7546 
3203 1 14.576 23.3912 13.8226 
3202 2 13.7331 23.1156 13.4624 
5637 1 60.8944 67.1582 95.0669 
2639 1 12.9422 -31.9621 12.9573 
2640 1 13.6588 -30.9457 13.8207 
2816 1 -34.2228 115.509 41.7159 
3204 1 13.8077 22.1652 13.3771 
2638 2 13.6393 -31.8788 13.6079 
668 1 103.604 60.6785 41.8663 
667 2 103.103 59.9343 41.5327 
3045 1 13.4058 -29.3018 94.5593 
3043 2 13.459 -29.3502 95.5138 
865 2 65.7311 -34.9982 9.87117 
4602 1 62.3002 -30.9276 39.3188 
867 1 64.8146 -34.7411 9.76958 
1824 1 -73.6802 18.8331 66.1416 
1039 2 21.1878 -74.2586 60.1682 
1927 2 -29.0761 -24.4562 34.3831 
4287 1 -24.8242 16.589 6.34554 
3169 2 61.4916 -24.9789 63.9172 
3170 1 61.5425 -24.9442 62.962 
2320 2 67.0865 106.251 12.0795 
2321 1 66.6454 106.29 11.2309 
5946 1 19.3903 23.337 5.9836 
5939 1 60.9296 59.3278 7.63241 
1929 1 -28.3764 -23.8232 34.5444 
4936 2 65.22 61.7536 -14.9887 
4937 1 64.2933 61.9896 -14.9462 
3171 1 62.3308 -24.628 64.2152 
4767 1 63.162 -28.3246 33.7759 
4601 1 62.4365 -32.0525 38.3149 
4528 2 67.9837 -70.8811 64.1308 
5531 1 17.4828 61.8269 -19.0076 
5895 1 -73.9703 60.1394 36.7133 
4530 1 68.5019 -71.6524 63.901 
5894 1 -74.2265 58.9258 35.8453 
5893 2 -73.8644 59.1883 36.6916 
5301 1 -24.0696 14.992 -17.2227 
3755 1 61.4764 68.0844 38.4962 
1040 1 22.0115 -74.5395 60.5666 
1302 1 -23.8222 -27.7829 -16.3598 
5300 1 -25.1979 15.3586 -16.2823 
658 2 64.2161 113.808 64.4421 
3679 2 -70.4797 -28.4169 90.6967 
5299 2 -24.5847 15.7367 -16.9125 
4286 1 -25.2304 15.9695 7.66581 
4285 2 -25.5875 16.4107 6.89499 
3681 1 -69.6843 -28.4188 90.1641 
1300 2 -23.5138 -27.8334 -15.455 
4766 1 61.7948 -27.7702 34.1155 
4600 2 62.5497 -31.8486 39.2433 
2270 1 21.0187 59.8988 8.99381 
2271 1 21.7536 60.1377 7.69196 
659 1 65.0381 113.444 64.1133 
2269 2 21.7156 60.4265 8.60377 
3003 1 18.0189 22.6231 11.1555 
3165 1 17.0084 110.284 60.8465 
3001 2 18.2877 22.7431 10.2447 
3164 1 18.4743 109.913 60.9241 
3002 1 19.0578 22.1832 10.146 
3680 1 -70.5793 -29.3249 90.9826 
5532 1 17.4428 62.5168 -17.6606 
5530 2 17.2347 61.6888 -18.0935 
1588 2 -28.03 -29.6049 36.7216 
3163 2 17.6075 109.542 60.7589 
660 1 63.7602 114.116 63.6591 
4765 2 62.3835 -28.501 34.3041 
1928 1 -28.8292 -24.883 33.5628 
1301 1 -22.8595 -27.1382 -15.3854 
1589 1 -28.5235 -29.1669 36.0281 
1590 1 -27.2432 -29.0708 36.8302 
4938 1 65.2882 60.9541 -14.4668 
594 1 -73.8953 -24.5243 13.5821 
3720 1 113.673 -31.1403 13.3321 
3671 1 20.0888 16.7592 14.5907 
3670 2 19.3574 16.7367 13.9737 
5635 2 60.9326 66.5205 95.7798 
1822 2 -73.8821 18.4032 66.9727 
5636 1 61.6958 65.9795 95.5772 
3718 2 113.113 -31.593 13.9622 
592 2 -73.565 -23.8597 12.9776 
3672 1 19.5527 15.9982 13.3968 
5541 1 -22.9988 69.933 41.4288 
5489 1 -24.5739 -121.433 13.4479 
5488 2 -24.2043 -121.089 14.2612 
5540 1 -24.4436 69.7566 41.0127 
5490 1 -23.6039 -120.399 13.9791 
1823 1 -73.0494 18.026 67.2563 
5539 2 -23.6959 69.2794 41.3724 
3641 1 -27.9795 17.3311 41.9479 
3719 1 112.662 -32.2613 13.4458 
4484 1 18.2414 -33.0562 -12.5499 
6056 3 106.922 60.4312 13.6932 
6120 4 -26.3016 -34.0661 40.7169 
2322 1 66.4264 106.545 12.7071 
919 2 10.8223 56.1003 70.536 
3112 2 -81.075 97.2073 71.3259 
894 1 46.0214 53.0156 45.2334 
892 2 45.7734 52.2219 45.7075 
4069 2 1.88722 50.3101 15.1301 
5735 1 -41.7219 48.3423 69.9432 
5247 1 -38.1572 9.78967 44.3345 
921 1 11.4009 55.3402 70.597 
4835 1 3.33169 -41.6744 18.0603 
4834 2 4.07893 -41.1742 18.3885 
920 1 11.2446 56.7674 71.0771 
2258 1 -35.9124 96.7725 15.3054 
4836 1 4.83771 -41.7281 18.2049 
5934 1 -81.5481 8.23178 42.3488 
1167 1 -39.3398 55.164 69.7256 
1809 1 1.05238 54.4094 16.4672 
4317 1 52.2245 50.4789 17.5193 
65 1 54.2012 -44.4674 44.1602 
64 2 53.3468 -44.8953 44.2158 
1997 1 9.29187 100.42 98.0229 
5675 1 4.10384 101.578 15.551 
4315 2 52.1329 51.3843 17.8159 
4316 1 52.8817 51.8398 17.4312 
599 1 0.0144011 99.3477 42.5513 
731 1 -39.8446 8.19779 71.481 
3554 1 94.0972 -82.9462 14.9154 
5245 2 -38.4773 9.22691 45.0395 
4113 1 6.49567 48.655 69.8946 
3114 1 -80.4414 97.2831 72.0393 
1807 2 0.554629 54.5304 17.2758 
893 1 46.5882 51.726 45.7881 
3827 1 2.31455 2.92115 -63.3075 
3826 2 2.24179 3.84775 -63.5363 
3559 2 5.92034 11.4458 15.006 
730 2 -40.3501 7.54268 70.9998 
4415 1 8.94048 57.4525 43.1919 
3553 2 94.5275 -82.6746 15.7261 
3560 1 6.62253 11.5366 15.6502 
3555 1 95.4532 -82.6015 15.4936 
419 1 93.3783 101.89 -35.9555 
3828 1 2.11233 3.8513 -64.4847 
5246 1 -37.9147 9.43371 45.7858 
418 2 94.0733 102.2 -35.3749 
732 1 -40.4623 6.82272 71.6206 
1996 2 8.89561 99.5623 97.8716 
4111 2 5.77943 48.7477 69.2665 
4414 2 8.35254 58.0903 43.5966 
3113 1 -81.6187 97.9913 71.4036 
5819 1 -42.7627 104.869 44.501 
5820 1 -43.1533 103.772 45.4685 
420 1 94.5241 101.403 -35.0938 
5818 2 -42.8926 104.692 45.4328 
5736 1 -43.0918 48.9811 70.0295 
66 1 53.5489 -45.8107 44.4088 
1998 1 8.77056 99.5195 96.9236 
5734 2 -42.5363 48.3219 70.4458 
2135 1 10.2222 -83.9422 19.352 
3611 1 95.7409 93.9879 17.1033 
3353 1 -43.5056 -46.7248 -64.1608 
3128 1 2.48079 0.666605 46.0262 
4695 1 3.62345 9.06355 50.3877 
4693 2 4.05186 9.78567 49.9281 
2829 1 11.4174 50.0478 23.7382 
2127 1 0.719069 56.3607 21.8736 
4635 1 9.48017 -46.3393 76.125 
701 1 5.03472 50.9684 -3.39489 
3127 2 3.0115 1.1667 46.6462 
3130 2 96.9983 51.1654 20.5837 
702 1 4.90087 50.4883 -4.82438 
3131 1 96.9322 50.4115 19.9976 
6013 3 51.3622 8.19632 48.888 
700 2 4.41457 50.9208 -4.12247 
2268 1 9.50109 96.4458 48.3369 
2267 1 9.08833 97.6073 49.2157 
2266 2 9.77893 97.3169 48.6199 
2758 2 6.95702 -40.4069 21.0412 
2759 1 6.67204 -41.2408 20.6674 
4670 1 -37.9751 56.0257 -3.81688 
2513 1 6.1723 95.0865 -4.43032 
4669 2 -38.5232 55.3237 -3.46623 
4694 1 3.4309 10.037 49.2444 
2760 1 7.39899 -40.6475 21.8555 
5236 2 54.858 0.986882 77.9898 
4774 2 -40.776 -45.146 75.5228 
5620 2 -43.6089 10.9436 48.7332 
5426 1 56.6988 -42.3806 22.0544 
4049 1 3.88529 48.1854 -30.5449 
4986 1 92.1816 53.6942 50.2601 
1738 2 -127.575 54.7848 20.0553 
2134 2 9.87758 -83.054 19.4444 
1659 1 -37.1228 103.863 -5.73027 
1657 2 -36.9192 104.11 -4.82795 
1740 1 -126.905 54.7397 20.7374 
1739 1 -128.289 54.2367 20.3828 
2805 1 57.0381 53.8166 23.0925 
5238 1 54.0081 0.672129 77.6818 
4984 2 92.3398 53.4404 49.3509 
4633 2 9.44433 -46.0033 75.2294 
4546 2 3.70599 -40.2474 75.9983 
2512 2 6.74653 94.4578 -3.99308 
4985 1 92.0778 54.2056 48.839 
4548 1 2.77004 -40.3698 76.1572 
5956 2 -37.5894 -88.5718 23.2135 
4547 1 4.12977 -40.9215 76.5296 
4776 1 -41.5183 -44.7892 75.0352 
1658 1 -35.9939 104.354 -4.84878 
4050 1 2.37796 48.1233 -30.6714 
1681 2 50.5733 10.0669 20.2334 
5957 1 -38.1936 -89.23 23.5568 
6114 4 11.2349 11.3081 -5.13535 
5621 1 -44.1741 11.4825 49.2867 
3132 1 96.1777 51.6414 20.4559 
3995 1 137.683 95.0544 48.3144 
5444 1 -34.8031 97.3106 47.2267 
3076 2 47.2551 46.9467 22.4737 
2136 1 10.3655 -82.6825 20.1793 
2514 1 6.99412 93.8401 -4.6811 
1683 1 50.9337 10.9519 20.2883 
4634 1 10.3249 -46.1483 74.8833 
5622 1 -43.1075 11.5742 48.2163 
3546 1 -45.284 51.7318 21.7227 
4775 1 -40.9254 -46.0914 75.5295 
4821 1 56.4538 11.0926 23.7758 
224 1 8.07274 -35.5348 -30.5969 
1682 1 49.9062 10.1215 19.5491 
3129 1 3.89445 0.810194 46.5485 
5904 1 149.13 50.669 15.8931 
191 1 59.2981 54.2091 16.1862 
5903 1 150.576 51.1189 15.9176 
190 2 58.4486 53.9704 15.8153 
1667 1 -32.1834 56.1365 -9.71737 
3712 2 -78.7454 -38.2801 73.166 
1668 1 -32.3902 57.4777 -10.3885 
192 1 58.5383 53.0454 15.586 
5902 2 149.762 51.2116 15.4215 
1924 2 59.7023 50.2207 -63.8392 
1666 2 -31.7695 56.7521 -10.3224 
1925 1 59.79 49.2924 -63.6229 
1926 1 60.2827 50.6667 -63.2224 
504 1 13.5935 94.2259 15.8955 
502 2 13.762 94.0913 16.8281 
5021 1 60.6889 11.2336 69.9332 
3714 1 -79.2077 -39.1067 73.3046 
2803 2 57.5116 54.6209 23.3049 
2166 1 12.4859 -46.5144 46.9521 
969 1 -31.2997 47.3718 102.088 
4375 2 58.4607 5.98642 -6.98199 
4455 1 -33.2453 10.126 21.959 
4453 2 -32.759 9.32538 21.7623 
5425 2 57.4248 -42.0073 22.5542 
2854 2 -30.6435 105.084 -31.4894 
5427 1 58.0748 -41.7704 21.8927 
4377 1 58.2826 5.13284 -7.37685 
967 2 -31.3352 47.6584 101.176 
4454 1 -33.181 8.6513 22.295 
4308 1 -30.9506 96.3295 19.8789 
4306 2 -30.7765 97.2385 20.1232 
696 1 60.1364 -133.93 76.0876 
2856 1 -31.0033 104.218 -31.68 
3110 1 60.775 0.396376 -4.17436 
5445 1 -33.8391 96.2884 46.663 
4376 1 59.3778 6.16179 -7.19296 
800 1 58.8841 58.18 46.6403 
3713 1 -78.47 -38.0094 74.0419 
2164 2 11.5786 -46.695 46.7063 
5443 2 -34.0953 97.2078 46.5906 
1118 1 20.8838 1.47855 15.6908 
3158 1 67.0385 6.3926 70.6406 
3157 2 67.3406 7.19941 71.0577 
3788 1 -27.6032 -84.6789 17.5085 
3787 2 -26.665 -84.5088 17.4242 
3789 1 -26.2476 -85.2174 17.914 
3738 1 21.1061 50.4505 43.6445 
1117 2 21.2012 1.76997 16.5455 
3736 2 21.1247 51.3864 43.8442 
4468 2 16.4922 8.67674 43.6648 
1119 1 22.0912 1.42221 16.6023 
851 1 65.9532 4.52974 14.9142 
1025 1 18.563 -88.1988 15.6085 
1024 2 18.8435 -87.3865 16.0302 
6014 3 18.5299 102.212 69.1798 
1026 1 19.1137 -87.6532 16.9089 
527 1 -74.1774 -43.1988 15.3507 
3159 1 66.7671 7.30658 71.8165 
3737 1 20.3543 51.5299 44.3939 
4470 1 15.7859 9.1677 44.0849 
1457 1 110.197 -45.7316 15.8965 
4743 1 21.6727 3.80174 -8.6109 
991 2 16.3042 0.481189 -9.6665 
1719 1 15.9626 6.11072 -36.9108 
6127 4 64.8583 5.423 -8.77777 
4450 2 18.2047 -43.8639 44.0943 
4452 1 18.541 -43.0925 44.5505 
1718 1 15.7999 5.63875 -38.34 
1456 2 110.368 -46.4219 15.2557 
4741 2 21.469 3.48733 -7.73004 
1610 1 20.0454 10.4921 18.3856 
4451 1 18.0508 -44.505 44.7883 
29 1 108.72 0.982275 18.7197 
3552 1 68.2003 10.6948 19.2856 
3524 1 16.6637 104.854 69.0766 
993 1 15.4405 0.664453 -10.036 
2920 2 21.6973 -36.4307 16.2117 
1420 2 62.3092 5.98667 -8.13905 
2721 1 19.8594 6.8278 19.0579 
1422 1 63.1665 5.60469 -8.32718 
2922 1 21.2198 -35.6073 16.1104 
2921 1 21.1843 -37.0682 15.715 
3551 1 68.4828 10.4649 17.8162 
1717 2 15.4827 6.29391 -37.7184 
28 2 109.339 1.51496 19.2186 
4469 1 16.1476 7.78798 43.5775 
2719 2 20.3158 7.66514 19.1405 
1609 2 20.3979 10.9838 19.1274 
1611 1 19.6827 11.5614 19.394 
858 1 -27.879 55.1728 22.5338 
857 1 -28.3637 56.6056 22.4715 
856 2 -28.1639 55.9002 23.0869 
4476 1 -26.7613 53.1261 76.9798 
4474 2 -27.4191 53.3313 76.3154 
4475 1 -27.5687 52.502 75.8615 
2833 2 -24.2754 94.8938 -33.6002 
2280 1 18.4168 -90.4382 -6.82766 
2278 2 18.952 -89.7166 -6.49725 
3856 2 -24.5163 7.79088 -5.21047 
6051 3 68.0452 48.7082 76.7716 
3277 2 -24.0207 -36.4501 -5.68933 
3857 1 -25.2348 7.40162 -4.71202 
3279 1 -24.6557 -36.2215 -6.36812 
3858 1 -24.6108 8.73324 -5.0717 
2835 1 -24.9618 94.377 -34.0222 
968 1 -30.433 47.5822 100.865 
2279 1 18.8696 -89.0328 -7.16192 
4133 1 -23.781 53.0654 -3.33801 
4942 2 20.7223 50.6119 76.5972 
6103 4 20.1998 52.7077 50.8661 
4944 1 20.659 51.4653 77.0261 
4943 1 20.1706 50.6928 75.8192 
1014 1 62.3854 50.898 50.4398 
1013 1 61.3847 51.5993 49.5461 
3419 1 62.1948 10.042 -7.19089 
3331 2 -28.1081 8.61913 19.8808 
558 1 -29.1168 1.31276 23.7469 
3332 1 -27.1644 8.48807 19.7893 
1202 1 -72.5991 94.2065 -58.1258 
1012 2 61.8159 50.7559 49.6837 
3333 1 -28.4736 7.73449 19.8889 
2855 1 -30.2712 105.377 -32.321 
3278 1 -23.8051 -35.6162 -5.27178 
2834 1 -24.1371 95.6356 -34.1891 
1201 2 -73.3101 94.2881 -57.4901 
557 1 -29.9909 2.54873 23.737 
2720 1 20.8174 7.58612 19.9519 
3420 1 62.6999 11.4657 -7.09132 
694 2 60.9395 -134.349 75.7782 
1421 1 61.9781 5.47978 -7.39767 
3418 2 61.8974 10.9443 -7.07374 
4307 1 -30.3096 97.1777 20.9566 
695 1 61.6362 -133.737 76.0147 
4742 1 20.6078 3.85746 -7.53624 
30 1 110.006 0.894712 19.5138 
4898 1 -89.1425 -30.4084 46.1601 
3689 1 -45.187 15.2655 -93.3892 
5210 1 92.4761 -28.4634 16.7579 
3983 1 50.8992 70.2354 -65.4682 
5771 1 54.3082 68.6584 18.9226 
6026 3 46.1017 68.7012 -10.5927 
910 2 54.3769 -23.5331 69.8681 
3102 1 3.32237 21.4451 71.877 
4387 2 96.5171 -122.01 -8.07893 
2483 1 5.82008 107.074 19.0329 
3698 1 7.83565 67.4725 43.8392 
5048 1 139.34 18.0687 99.6615 
4389 1 95.7059 -122.518 -8.0769 
3100 2 2.46043 21.1497 71.5837 
3697 2 7.88101 68.2865 44.3408 
1515 1 11.0003 -25.548 18.5567 
3699 1 8.2221 68.9315 43.7212 
5047 2 139.135 18.9259 100.035 
149 1 6.6762 -28.7687 71.7881 
3101 1 2.3374 20.3037 72.0142 
4075 2 95.9376 14.8444 18.3883 
1783 2 101.789 -31.2965 -9.62294 
5968 2 6.20308 14.7981 -10.8351 
4077 1 95.6509 15.7279 18.1567 
150 1 7.80448 -28.7542 70.7788 
6104 4 9.77816 60.2023 70.2142 
3374 1 55.9859 65.5665 42.8171 
4416 1 8.7707 58.9366 43.4379 
3373 2 56.5933 66.1819 42.4065 
2607 1 5.58801 114.519 -11.8062 
1325 1 55.0785 12.3647 18.8828 
669 1 102.286 59.9511 42.0326 
4160 1 97.4219 21.6977 -9.03984 
6076 4 48.8049 63.7513 17.806 
5947 2 96.1638 64.1289 42.8761 
5969 1 7.00845 14.577 -11.3028 
4076 1 96.324 14.4989 17.5836 
4225 2 54.8613 111.203 -38.192 
4159 2 96.4871 21.7723 -8.84825 
4161 1 96.1845 22.4897 -9.40504 
1784 1 101.635 -31.5885 -8.72432 
5970 1 6.0108 15.6975 -11.1004 
497 1 48.6155 15.4523 -10.1482 
4226 1 55.0029 110.966 -39.1087 
4388 1 96.3166 -121.24 -8.6115 
1324 2 54.7949 13.2687 18.7469 
5948 1 95.6692 64.0429 43.6911 
5949 1 96.2094 65.0724 42.7214 
1326 1 54.7206 13.3566 17.7966 
4227 1 55.2649 110.491 -37.6955 
498 1 47.6248 14.3298 -10.3726 
2605 2 5.20809 113.654 -11.6541 
2684 1 11.2305 12.175 43.9249 
2484 1 7.02178 106.153 19.0466 
1513 2 11.322 -24.7056 18.2357 
1785 1 101.6 -32.0656 -10.1606 
148 2 7.13487 -28.1957 71.1737 
496 2 48.2546 14.8864 -10.8306 
5400 1 100.186 61.2673 42.1035 
5211 1 93.3781 -29.6429 16.4628 
2606 1 5.88671 113.174 -11.1794 
5209 2 92.6479 -29.1396 16.1025 
5741 1 0.606282 59.1507 100.188 
911 1 54.9183 -23.5391 69.0787 
2485 2 139.54 112.742 21.7068 
6063 3 7.62368 23.2372 21.614 
4971 1 5.09798 -73.9215 -6.63402 
2904 1 55.4445 23.1461 -3.57196 
4179 1 0.466715 63.121 50.6566 
3246 1 46.6064 68.9232 -4.30789 
404 1 48.7105 59.4452 19.4583 
2902 2 54.8599 22.4559 -3.88508 
2452 2 -45.4707 12.5019 -4.06987 
2487 1 139.616 111.923 22.1957 
5165 1 102.031 20.1596 -5.74666 
640 2 6.66126 -25.5708 -85.5638 
5582 1 7.65441 110.601 20.86 
4970 1 3.80713 -73.5611 -5.93001 
126 1 51.0303 62.2106 -32.7165 
2734 2 10.1306 13.9245 76.5088 
5581 2 7.17184 111.252 21.3693 
5583 1 6.34256 111.355 20.9026 
2486 1 139.073 113.332 22.2988 
2735 1 10.3514 13.0317 76.2433 
4969 2 4.70343 -73.2559 -6.07056 
403 2 49.153 60.0217 20.0812 
5692 2 8.63111 62.2716 -6.6221 
5164 2 102.071 20.3138 -6.69053 
5772 1 55.3394 68.4457 20.0104 
5049 1 139.016 18.7585 100.97 
3006 1 94.1947 23.4066 20.5955 
3516 1 -39.379 -33.3754 -5.78489 
3515 1 -38.8832 -33.4523 -4.35653 
5770 2 54.4721 68.8183 19.852 
4897 2 -89.6688 -30.8057 46.8539 
2482 2 6.32379 106.495 19.6052 
3244 2 47.2007 69.6282 -4.05099 
2338 2 98.3888 -28.5245 78.0629 
4899 1 -89.0313 -31.243 47.4183 
1854 1 4.5934 22.3219 -6.26281 
3514 2 -39.2346 -32.8411 -5.00393 
3728 1 8.98346 -28.2496 -5.07374 
125 1 50.456 62.4448 -34.0975 
3727 2 9.86355 -28.5324 -4.82538 
2311 2 4.28191 61.3111 -3.65686 
3245 1 47.432 70.059 -4.87391 
5828 1 49.7914 63.8874 22.3204 
2953 2 56.6503 20.4023 50.3899 
2340 1 98.3906 -28.7917 77.1438 
124 2 50.5635 62.8604 -33.2419 
1852 2 4.6523 23.2716 -6.36675 
2555 1 9.06425 14.7249 -3.98849 
1247 1 102.487 -29.9911 22.1822 
2736 1 10.8838 14.2152 77.0231 
641 1 7.05284 -26.4242 -85.3779 
642 1 5.96166 -25.7589 -86.1895 
2313 1 4.14841 60.3675 -3.56681 
5829 1 49.405 62.9608 23.4536 
2556 1 7.77719 15.5145 -4.09721 
2312 1 4.96901 61.3942 -4.31809 
5694 1 9.13976 61.8967 -5.90312 
2955 1 56.1456 21.2125 50.4607 
3729 1 10.2391 -27.7778 -4.37183 
5827 2 49.3212 63.866 23.1539 
2554 2 8.46252 15.2657 -3.477 
2453 1 -45.3874 13.0988 -3.32622 
5693 1 8.50641 61.5448 -7.23238 
5166 1 102.5 19.5343 -7.04316 
1853 1 4.93306 23.3969 -7.27324 
517 2 -91.2544 20.4495 22.3165 
1221 1 0.0420984 62.9669 46.5394 
405 1 49.5135 60.7259 19.5423 
4653 1 46.0113 22.265 -7.49566 
4841 1 151.45 15.7649 -9.31977 
4842 1 152.118 14.5764 -8.66263 
4840 2 152.069 15.5317 -8.6285 
2685 1 11.8379 12.1741 45.3117 
2683 2 11.932 11.7813 44.4438 
1847 1 103.719 17.906 45.8458 
3329 1 15.005 17.1652 -8.04576 
1743 1 104.391 16.8158 42.8547 
3242 1 59.0075 20.8452 -10.724 
1514 1 11.6577 -24.8949 17.3595 
5786 1 106.133 116.318 71.9015 
1742 1 103.431 16.4851 43.9773 
3243 1 57.7235 20.4002 -11.3914 
1741 2 104.302 16.277 43.6409 
3241 2 58.1895 21.1805 -11.0909 
5785 2 105.745 116.999 72.4499 
3328 2 14.9508 18.0679 -7.7322 
2481 1 12.0798 22.2207 20.6732 
3047 1 -77.3872 60.3729 47.6256 
2276 1 -32.131 12.4127 23.4668 
6049 3 14.0276 15.4512 50.2042 
1846 2 103.771 18.5165 46.5811 
5104 2 -78.116 -25.0071 -3.70196 
2479 2 12.976 22.5408 20.7771 
2275 2 -33.0377 12.6901 23.5972 
801 1 57.9273 58.7925 47.6409 
2277 1 -33.5398 12.1732 22.9671 
799 2 58.6044 59.0202 47.0038 
1246 2 103.39 -30.2518 21.9998 
2480 1 13.3087 22.6172 19.8829 
2954 1 57.564 20.6841 50.4344 
5105 1 -77.9792 -24.6013 -4.55806 
1248 1 103.586 -29.8592 21.1492 
5106 1 -77.2807 -24.8963 -3.24771 
3046 2 -76.8965 61.1399 47.921 
3048 1 -76.7595 61.6574 47.1276 
1848 1 104.699 18.5294 46.8172 
1206 1 110.154 -23.5799 42.6263 
4473 1 15.6384 20.1124 44.6354 
5020 2 61.0372 12.1225 69.8645 
3330 1 15.6248 18.5345 -8.22641 
4472 1 15.3558 20.2875 43.1585 
4471 2 15.3357 20.7548 43.9936 
5022 1 60.9966 12.4658 70.7571 
4563 1 15.4335 12.3249 -8.18225 
382 2 65.6663 15.1795 18.4731 
3868 2 19.6603 65.29 17.8911 
1205 1 111.586 -24.0615 42.7254 
4561 2 15.521 12.9733 -8.88091 
5737 2 19.3257 22.634 72.5925 
5738 1 19.8245 22.0692 72.0023 
2205 1 65.0638 59.247 -9.48082 
2120 1 16.6805 -24.9078 43.5893 
2445 1 -24.5824 -33.2592 15.6268 
4562 1 16.4605 13.0066 -9.06107 
491 1 16.9122 111.995 -37.1966 
2119 2 17.4287 -24.7505 43.0134 
2203 2 64.3804 59.8319 -9.15365 
1762 2 21.7541 -30.9855 43.6139 
3869 1 20.4666 65.0597 17.4296 
236 1 68.4564 18.9469 71.4298 
2444 1 -25.6012 -34.2276 15.0645 
3642 1 -28.7902 16.4795 42.9015 
490 2 17.1444 112.418 -36.3698 
5711 1 62.1253 70.3141 -38.6923 
4483 2 17.5841 -32.93 -11.8655 
1763 1 22.1673 -30.1359 43.7677 
2121 1 17.7164 -25.6244 42.7495 
2204 1 64.8318 60.6597 -8.98861 
4887 1 21.659 162.405 -11.0009 
3640 2 -28.7282 17.365 42.5432 
4485 1 17.8678 -33.5015 -11.1519 
235 2 67.8874 18.4524 70.8399 
384 1 66.2304 15.402 17.7326 
4886 1 20.8334 161.143 -10.8765 
4885 2 20.9815 161.994 -10.4644 
2443 2 -25.0081 -34.0979 15.8045 
492 1 18.0993 112.479 -36.3916 
1764 1 21.9108 -31.1642 42.6867 
237 1 67.7783 19.0219 70.0783 
3870 1 19.9238 65.3737 18.8075 
582 1 -27.2399 -31.0105 19.3742 
383 1 66.2162 15.3189 19.2441 
2523 1 159.855 116.46 73.5244 
2330 1 18.1324 68.9035 48.9475 
3817 2 107.528 -29.9943 50.3707 
4989 1 17.0651 69.6295 47.0756 
4987 2 17.4274 68.7611 47.2511 
2329 2 18.087 69.0743 49.8882 
2331 1 17.2563 68.6859 50.1628 
353 1 63.9559 -33.9782 23.7848 
3466 2 21.1278 15.2076 75.0665 
4710 1 64.3662 59.6125 48.5669 
2462 1 -24.2156 16.9863 23.845 
3899 1 21.0766 -70.8103 -59.5942 
3772 2 19.8546 106.841 23.4303 
2429 1 67.0922 114.888 -33.99 
861 1 67.5008 65.8355 74.7202 
2430 1 66.3794 116.103 -34.5444 
436 2 18.7067 -27.7562 22.4897 
308 1 16.9367 67.3618 47.9678 
3818 1 108.151 -29.7653 49.6812 
2946 1 65.4476 67.353 23.7502 
354 1 62.8018 -34.9542 23.7003 
2428 2 67.1418 115.843 -34.0272 
438 1 18.8423 -28.6683 22.233 
859 2 66.7478 66.4255 74.6877 
860 1 66.2446 66.2159 75.4746 
309 1 15.5093 67.0363 48.3532 
5702 1 -25.8908 -30.8011 -4.99607 
3468 1 21.5234 14.477 75.542 
6141 4 22.071 12.9939 22.2192 
4988 1 18.1111 68.6483 46.5907 
580 2 -27.9166 -31.3443 19.9632 
5703 1 -27.2888 -30.9663 -5.55289 
5701 2 -26.7519 -30.3837 -5.01571 
307 2 16.4179 66.8704 48.6046 
4708 2 63.7152 59.4294 47.8896 
437 1 17.8054 -27.5652 22.2301 
4709 1 63.3509 60.2866 47.6687 
2463 1 -25.7289 17.026 23.8657 
299 1 -114.551 14.1616 50.6145 
3467 1 21.7878 15.9002 75.0987 
4232 1 -26.6866 -23.7468 132.09 
3774 1 20.6222 106.947 22.8685 
581 1 -28.6986 -31.4136 19.4155 
4098 1 48.8753 -42.3759 -2.52326 
4096 2 48.2403 -42.9033 -2.03868 
1381 2 46.9105 -40.5108 -29.3298 
4097 1 48.3185 -43.7796 -2.41583 
5354 1 51.3878 11.6558 24.3928 
1781 1 -39.3527 5.37209 -2.12005 
4048 2 3.07708 48.3994 -30.0788 
393 1 5.71732 94.05 24.7201 
2572 2 -43.3145 58.4778 -1.34494 
2828 1 10.6704 48.7475 23.9455 
5355 1 50.0405 11.0825 24.0081 
1780 2 -39.3149 4.41763 -2.05827 
1861 2 -36.639 6.55133 25.1201 
4671 1 -38.5012 55.4529 -2.51804 
5958 1 -37.4089 -87.9996 23.9594 
1383 1 47.2589 -41.3581 -29.0525 
4820 1 56.8962 10.7138 25.1732 
2372 1 -41.1452 -39.7345 106.703 
4729 2 48.8391 -38.7659 -2.07827 
1863 1 -36.9339 7.45846 25.1998 
4731 1 47.9983 -39.2102 -2.18694 
5237 1 54.6588 1.46949 78.792 
113 1 145.765 56.7219 -0.985125 
2371 2 -40.218 -39.9635 106.766 
1382 1 46.0337 -40.4751 -28.9474 
2373 1 -39.8634 -39.3525 107.412 
4819 2 56.1787 11.1259 24.692 
1862 1 -35.878 6.49472 25.6981 
1233 1 2.99734 95.4079 -55.0911 
4730 1 48.74 -38.2582 -1.27288 
112 2 145.256 55.9262 -1.14067 
1782 1 -39.5212 4.22804 -1.14299 
1680 1 -34.4032 47.7665 25.7414 
5889 1 92.1442 57.7782 53.2018 
5162 1 98.8524 149.436 28.8794 
5161 2 98.3145 149.874 28.2197 
2497 2 -42.5474 9.57045 27.1681 
3456 1 5.15567 3.029 57.7996 
3454 2 4.45751 3.45329 58.2983 
1380 1 45.7631 -38.9891 -50.5823 
5368 2 -36.7658 49.8747 83.4069 
5369 1 -36.6493 50.8194 83.3066 
3556 2 -39.098 94.2472 -21.4348 
5370 1 -36.1873 49.6372 84.1316 
4758 1 10.7069 94.2615 3.80561 
5484 1 55.2631 -41.2694 57.7892 
5308 2 52.0368 -40.942 109.926 
494 1 -38.2452 2.18937 -24.0919 
5483 1 56.0186 -41.262 56.4773 
5310 1 51.5685 -41.527 109.331 
5482 2 55.1362 -41.2006 56.8429 
1143 1 -41.5104 53.1169 85.0587 
1141 2 -41.6608 52.8442 84.1536 
1232 1 4.02167 95.2556 -53.9868 
493 2 -39.1318 1.93257 -23.8384 
1142 1 -40.8271 53.0066 83.7124 
495 1 -39.5591 1.69924 -24.6625 
3455 1 4.14395 4.15272 57.725 
5163 1 97.4425 149.918 28.612 
1841 1 -37.6911 101.596 30.6495 
5309 1 52.9618 -41.1367 109.776 
487 2 8.25578 48.8746 -27.7719 
2499 1 -41.7482 9.41251 27.6706 
1450 2 8.64736 11.3106 30.0884 
2498 1 -43.2576 9.35965 27.7743 
1840 2 -37.1827 102.108 30.0208 
1842 1 -36.2826 101.803 30.1348 
114 1 144.902 55.6958 -0.281643 
766 2 92.611 8.43033 58.9371 
4072 2 -135.136 7.14888 28.4758 
4073 1 -134.325 6.75136 28.793 
489 1 7.36614 48.6338 -27.5135 
1452 1 8.36315 10.4589 30.42 
4520 1 -86.0082 2.97192 0.246118 
5878 2 50.2467 9.60764 2.61454 
1988 1 2.31749 49.2845 1.66502 
5880 1 50.9069 9.52681 3.30292 
488 1 8.57298 49.4249 -27.0558 
1987 2 2.12998 48.9948 2.55784 
1686 1 -36.8779 47.3159 81.4866 
187 2 6.98831 54.0924 32.2051 
1989 1 2.73095 49.5001 3.10533 
5879 1 49.6052 10.2237 2.96839 
767 1 92.6133 7.61092 59.4319 
4519 2 -86.1882 3.91171 0.22088 
3301 2 0.922552 4.85197 54.4668 
189 1 6.06042 53.8648 32.2638 
4074 1 -135.543 6.46828 27.9399 
937 2 6.44323 56.6795 58.8554 
2310 1 5.59442 -89.6203 -21.5037 
768 1 93.5348 8.60497 58.7577 
4521 1 -87.1415 3.97192 0.158688 
4656 1 48.3013 0.629309 30.5243 
939 1 6.63937 57.4028 59.4508 
4418 1 46.1836 2.01804 30.0213 
2573 1 -42.9732 57.748 -0.82807 
938 1 6.86157 55.9179 59.2569 
578 1 94.687 96.4428 5.2646 
652 2 -41.3838 100.598 -21.6662 
188 1 7.44652 53.2567 32.2945 
4750 2 48.7797 11.4031 85.1519 
5054 1 46.9346 -35.4416 3.58475 
4751 1 48.7557 11.4143 86.1087 
5194 2 56.7647 -44.4501 4.04303 
6096 4 5.62122 1.32663 0.442782 
3303 1 0.271004 5.26638 53.9011 
2077 2 92.0276 146.137 32.6 
1379 1 45.9768 -39.9167 -51.7595 
1231 2 3.09599 95.4452 -54.1397 
3557 1 -38.9951 94.7009 -22.2713 
392 1 5.60484 94.1237 26.2281 
2078 1 92.1715 145.192 32.6524 
5055 1 46.0457 -36.6152 3.93741 
5580 1 99.4674 51.294 5.49601 
653 1 -41.6691 101.481 -21.4324 
293 1 0.261768 50.0385 0.102581 
5195 1 56.6923 -44.8571 4.9064 
3302 1 1.58201 4.51026 53.863 
4391 1 8.66664 57.869 32.7201 
579 1 93.3255 96.1502 5.85839 
5831 1 5.96482 58.2923 1.41016 
2552 1 10.7423 -82.6218 28.0543 
5053 2 46.0354 -35.6646 3.82566 
5887 2 91.4348 57.2049 53.4921 
1391 1 141.729 56.8445 59.7911 
6129 4 0.363482 2.83872 32.8508 
5578 2 100.193 51.8587 5.23082 
2804 1 57.4543 54.6886 24.2579 
3633 1 103.848 -89.6424 79.7665 
4603 2 15.0976 52.3443 79.4981 
2827 2 11.4269 49.2439 24.2577 
3632 1 104.775 -88.4591 79.949 
887 1 60.2539 -91.7383 -1.93198 
888 1 58.7435 -91.658 -1.86852 
886 2 59.5147 -91.8453 -1.33336 
3631 2 104.024 -88.9008 80.3457 
4604 1 15.2119 53.2598 79.2434 
1304 1 57.2707 -39.8299 -23.3063 
1305 1 57.8935 -39.0829 -24.4664 
1678 2 -34.2342 46.9819 26.263 
1303 2 57.3543 -38.9552 -23.6859 
6077 4 14.7328 52.9085 29.6149 
5196 1 57.3258 -43.6875 4.18347 
5285 1 12.2746 56.6613 58.0188 
5284 2 12.8383 57.387 58.2866 
5286 1 13.6687 57.2235 57.8395 
2026 2 -78.0859 -39.0471 -52.7994 
2028 1 -77.4418 -39.7078 -52.5447 
6145 4 -30.7341 56.3533 0.187148 
608 1 60.0359 -39.8197 112.26 
2155 2 -31.0272 50.5407 28.0852 
5307 1 104.329 -41.3416 -52.1654 
2156 1 -31.7876 50.678 27.5203 
1512 1 15.0995 -37.157 28.9733 
2027 1 -77.5741 -38.3725 -53.2458 
5067 1 58.8752 -36.6968 80.9019 
5305 2 103.427 -41.6245 -52.3149 
5306 1 103.444 -42.0351 -53.1794 
4302 1 103.455 7.55437 -26.9448 
2157 1 -31.0518 51.2716 28.7027 
4620 1 -31.8207 -42.0966 30.6638 
4618 2 -32.015 -42.6515 31.4192 
4619 1 -31.213 -42.6356 31.9414 
5994 1 -76.4485 -35.4907 -27.5407 
4300 2 102.986 7.35501 -27.7551 
1679 1 -33.7455 47.2991 27.0224 
609 1 59.0752 -39.961 113.422 
400 2 -31.0544 0.132402 59.9038 
607 2 59.9689 -39.6938 113.207 
5226 1 58.1043 52.1769 4.85876 
5224 2 57.5897 52.8259 5.33858 
1510 2 15.1897 -36.5724 29.7258 
4732 2 -76.5753 95.3301 3.51518 
6052 3 14.7366 48.0547 0.920808 
4734 1 -77.1195 96.116 3.46587 
4301 1 103.237 6.45497 -27.9626 
5065 2 57.9872 -36.7016 80.5446 
4998 1 -30.5283 149.488 5.19125 
4733 1 -76.815 94.9241 4.34824 
1695 1 -78.7713 47.512 59.6597 
5066 1 57.7615 -37.6293 80.4752 
688 2 19.3974 101.923 24.9891 
1821 1 66.9978 8.60158 25.2888 
689 1 19.5489 101.094 24.5367 
690 1 18.738 102.37 24.4578 
4605 1 15.9707 51.961 79.4136 
556 2 -29.9978 1.6185 23.9625 
2439 1 64.5534 51.6893 24.3014 
2437 2 63.6908 51.3513 24.542 
5256 1 66.62 51.7986 25.0591 
2438 1 63.8761 50.5725 25.0669 
3749 1 -29.7333 0.437445 -1.72583 
1820 1 67.9069 9.47438 26.1276 
1819 2 67.9045 8.68696 25.5834 
5294 1 15.2748 8.74199 -1.38581 
5293 2 15.4793 8.23567 -2.17197 
5295 1 16.2668 8.6492 -2.52569 
4340 1 17.0763 -35.5391 -0.916254 
5255 1 67.908 51.2934 25.6738 
2853 1 -26.8619 -45.5171 26.0266 
5254 2 66.9614 51.3185 25.8136 
2852 1 -26.2008 -44.1552 26.0428 
2608 2 159.706 54.6736 28.8642 
3499 2 62.4652 7.6384 54.9804 
2825 1 17.7504 6.16223 82.6886 
2610 1 159.174 55.3798 28.4969 
6022 3 -26.8473 55.6902 0.250846 
6044 3 22.7297 7.45392 31.4582 
2791 2 16.9446 49.1941 55.5489 
2824 2 18.4332 5.56594 82.9959 
2826 1 19.1154 5.61685 82.3264 
3247 2 -117.122 0.270979 32.1149 
4740 1 22.5787 0.677215 27.3295 
2793 1 16.3559 49.8866 55.2488 
3862 2 18.4532 -84.3577 29.5888 
4539 1 21.569 4.08756 27.5718 
2792 1 17.607 49.1274 54.8612 
3501 1 61.8481 7.23483 55.5908 
4538 1 20.4307 3.81818 28.5329 
4341 1 16.6086 -36.6712 -0.0266274 
4537 2 21.3122 4.18866 28.4883 
2179 2 -25.3395 -86.0027 32.0054 
3500 1 61.9294 8.23325 54.4557 
2181 1 -25.8892 -86.179 31.2419 
2180 1 -25.6472 -85.1574 32.3326 
3716 1 -28.2043 5.02882 30.3148 
4339 2 17.3886 -36.3164 -0.453241 
3295 2 17.2845 7.58729 31.0508 
1497 1 21.0786 104.634 28.1594 
3297 1 16.4846 7.09694 30.8612 
3863 1 18.2668 -83.7246 30.2821 
1135 2 20.5454 -40.1094 -26.788 
1136 1 21.3431 -40.0679 -26.2606 
3608 1 -114.622 57.0668 57.5108 
4235 1 16.9383 144.007 4.87539 
3607 2 -115.015 57.5436 56.78 
6071 3 17.5083 94.5892 30.4019 
1487 1 -25.3116 -46.1731 -24.219 
3296 1 17.1884 7.85973 31.9633 
1495 2 20.5644 104.194 27.4823 
4906 2 -26.1491 97.9452 86.7995 
1486 2 -25.7843 -45.923 -25.0128 
1137 1 20.6904 -40.8432 -27.3852 
3715 2 -28.9473 4.71423 30.8298 
1511 1 15.7042 -35.8353 29.3968 
142 2 -23.8917 51.9858 85.27 
4908 1 -26.1989 97.0322 87.0828 
3609 1 -114.32 57.5938 56.124 
3864 1 17.9351 -85.1281 29.8216 
4907 1 -27.0351 98.1531 86.5031 
3717 1 -29.693 5.22238 30.5104 
4997 1 -30.0029 150.638 4.35954 
4234 2 17.0873 143.158 5.29178 
144 1 -23.9049 51.5426 84.4217 
1496 1 20.4303 104.863 26.8105 
2851 2 -26.962 -44.6311 26.3749 
143 1 -24.7888 51.9089 85.5948 
4996 2 -30.003 150.286 5.24943 
1488 1 -25.2211 -46.2151 -25.7296 
3748 2 -29.4254 0.0774097 -0.894076 
4236 1 16.2232 142.747 5.3147 
221 1 9.47622 -34.8363 52.8462 
5353 2 50.4469 11.8033 24.4892 
1209 1 9.76931 63.4214 51.454 
2903 1 54.3533 22.2022 -3.11359 
3860 1 53.8584 66.7542 -2.31542 
4585 2 -43.5944 65.1755 25.0522 
5861 1 48.3732 -24.6784 -2.59695 
5626 2 51.7474 22.6551 -2.04553 
1207 2 10.3397 64.0855 51.8412 
5628 1 51.6119 22.457 -2.97215 
4586 1 -42.8761 64.7077 24.6263 
5860 2 48.5756 -25.3513 -1.94704 
3859 2 53.8521 67.5584 -1.79637 
4309 2 50.4363 66.3219 24.5777 
2574 1 -42.5534 59.0361 -1.50378 
5862 1 49.3076 -25.8381 -2.32572 
72 1 3.69203 -78.8074 24.9586 
2339 1 98.2918 -29.3424 78.5505 
225 1 7.84489 -34.5285 -29.4891 
1208 1 10.5165 64.6966 51.126 
4310 1 50.4397 65.7978 25.3787 
70 2 3.28668 -78.4733 25.7588 
4311 1 51.3437 66.3016 24.2737 
223 2 7.39193 -35.0007 -30.1877 
4587 1 -43.4405 66.0961 24.8399 
4177 2 0.229249 62.4634 51.3102 
5627 1 52.0436 21.8286 -1.66423 
5136 1 4.94686 -33.708 52.8855 
5135 1 6.29671 -33.0231 52.8582 
3861 1 53.3309 67.3411 -1.02343 
2597 1 -34.678 60.1469 53.2331 
3149 1 46.0381 70.083 30.1415 
2048 1 -35.3064 -70.7329 4.47567 
1591 2 0.783348 107.375 -0.00890286 
1592 1 0.0263567 106.893 0.324881 
220 2 8.86199 -34.34 53.3871 
4143 1 49.5391 17.9631 -0.353037 
5633 1 50.5712 69.0239 32.6513 
3090 1 -45.5578 21.4715 54.252 
3086 1 9.72021 -34.6405 3.99845 
1593 1 1.16239 106.797 -0.67112 
4028 1 6.67075 70.0096 28.4737 
222 1 9.25935 -34.3344 54.2579 
1036 2 47.0025 65.2088 0.614015 
5112 1 0.72773 65.1011 30.4359 
2587 2 4.73541 65.1736 5.85671 
5111 1 0.119584 66.486 30.3716 
5634 1 51.2531 70.2933 32.187 
4142 1 50.7925 17.3446 0.228613 
4255 2 -36.5801 17.0603 -48.5973 
1037 1 47.1167 66.0117 0.105628 
5783 1 55.7327 110.977 53.5773 
5784 1 56.8033 111.001 54.6475 
4798 2 8.52133 19.6367 -49.6073 
1451 1 7.8343 11.792 29.9352 
1372 2 92.266 16.6124 84.7839 
5110 2 0.924857 66.0034 30.1847 
1373 1 92.93 16.618 85.4733 
5562 1 2.62585 162.987 -50.0437 
1374 1 92.463 15.831 84.2673 
6047 3 0.753822 63.0735 26.484 
3191 1 48.7301 -71.9848 -54.5554 
4062 1 9.79016 114.194 83.2386 
3192 1 49.6932 -71.5577 -53.4683 
5560 2 1.90046 163.573 -49.828 
3625 2 -39.3263 -26.0244 30.1378 
3195 1 6.06588 -27.4948 26.9387 
4800 1 7.8424 20.1648 -50.0273 
3626 1 -39.3262 -25.1287 29.8 
1691 1 -36.4285 68.218 26.9366 
5134 2 5.53752 -33.1776 53.4203 
61 2 -42.9309 -30.2648 -21.902 
5561 1 1.45542 163.145 -49.0966 
3194 1 6.51581 -26.6095 28.0813 
5832 1 6.51321 59.5885 0.852427 
4027 2 5.79496 69.8378 28.1277 
3089 1 -44.3257 21.7166 55.0969 
3627 1 -40.2462 -26.2094 30.327 
1690 2 -36.0247 68.7002 27.6581 
4061 1 9.70163 112.691 83.0821 
4257 1 -37.0237 17.7308 -49.1168 
2245 2 -39.6283 16.7391 -25.3178 
3225 1 51.2378 13.3083 58.3219 
3803 1 3.52321 13.9275 5.23815 
4029 1 5.93896 69.6223 27.2063 
3193 2 6.57239 -26.7056 27.1306 
747 1 53.192 -33.8205 32.4682 
3087 1 10.1628 -33.3413 4.6374 
5782 2 55.8863 111.225 54.4889 
4060 2 9.92344 113.374 83.7145 
745 2 52.9915 -34.6922 32.8091 
2060 1 54.615 16.2481 55.2423 
2061 1 54.9831 15.9631 56.6828 
4141 2 50.4895 18.0705 -0.31685 
2400 1 -43.1775 -27.0807 2.97178 
62 1 -42.811 -31.0341 -21.3453 
2059 2 54.2499 15.9308 56.0683 
5351 1 7.95687 15.2014 32.3677 
2327 1 57.028 22.2769 28.2208 
71 1 4.02448 -78.2356 26.3204 
4799 1 9.21476 19.571 -50.2638 
2246 1 -39.5329 17.2922 -24.5424 
2247 1 -38.8053 16.2529 -25.3685 
1692 1 -36.7534 69.1554 28.08 
4752 1 49.2241 12.2167 84.9135 
3190 2 48.7874 -71.8314 -53.6123 
63 1 -42.2783 -29.6382 -21.5894 
1478 1 10.4754 63.1048 4.76234 
2399 1 -42.9911 -25.8651 2.0888 
891 1 96.1417 14.2192 0.775265 
5830 2 6.20482 59.1837 1.66316 
5350 2 7.72554 14.5285 31.7274 
889 2 95.6664 14.7286 1.43164 
3224 1 50.4589 14.2165 57.3944 
3223 2 50.35 13.6062 58.1237 
1477 2 10.9829 62.7319 4.04151 
1893 1 1.3793 -79.6867 82.6648 
890 1 96.1927 15.5195 1.54885 
3085 2 10.3524 -34.2794 4.61986 
1891 2 1.78981 -79.3523 83.4622 
1892 1 2.72238 -79.5344 83.3466 
2553 1 9.7707 -81.9017 28.965 
2551 2 10.4721 -81.7466 28.3324 
5352 1 8.06085 14.8632 30.8957 
2398 2 -42.6402 -26.2952 2.86861 
2588 1 4.32789 66.0033 5.6083 
1038 1 46.7386 65.5106 1.48323 
3088 2 -45.2516 21.4818 55.1589 
576 1 93.9676 114.669 32.8684 
5943 1 57.0937 67.297 -21.2584 
2056 2 13.8685 -28.1971 -1.86741 
2598 1 -33.5836 60.401 52.2183 
4556 1 -30.631 13.2062 52.2485 
4555 2 -30.5306 14.0487 51.8055 
990 1 -33.678 16.3533 -28.8786 
989 1 -32.3804 17.1315 -28.9291 
988 2 -32.7281 16.2399 -28.9098 
2058 1 13.6647 -27.7846 -1.02803 
2596 2 -33.8722 60.6455 53.0976 
2057 1 14.5228 -27.6223 -2.26466 
5109 1 106.203 -24.4657 30.4866 
3771 1 60.6265 60.8525 31.0975 
6067 3 12.6478 59.2577 59.6984 
4429 2 57.9494 70.0678 -22.6652 
5107 2 106.189 -24.7375 31.4043 
3314 1 13.9818 -24.4127 1.49733 
5244 1 59.3159 16.9901 1.1663 
5992 2 -76.2994 -34.5517 -27.4291 
1479 1 11.7557 63.2929 3.97663 
5941 2 57.8583 67.2261 -21.8299 
3313 2 14.8997 -24.1712 1.37329 
3770 1 59.3562 60.5276 30.3407 
4431 1 58.829 69.7096 -22.5459 
3497 1 -78.137 -31.4781 -21.6305 
5863 2 104.094 17.78 -50.3919 
5242 2 58.486 16.5885 1.42373 
5942 1 57.9205 68.0816 -22.2547 
5864 1 103.705 18.6399 -50.2338 
5865 1 104.988 17.8564 -50.0579 
5243 1 58.2033 17.0906 2.18805 
6042 3 13.8764 14.5097 26.8971 
2326 2 57.9 22.4946 28.55 
2328 1 57.7936 22.5387 29.5003 
3769 2 59.7482 60.4898 31.2131 
1215 1 57.7664 12.9825 55.8486 
1214 1 57.8784 14.4619 56.15 
1213 2 58.4051 13.6714 56.0324 
352 2 63.0751 -34.1399 24.1228 
3318 1 -118.472 16.987 -1.57212 
2272 2 21.8178 163.382 25.0353 
3316 2 -119.232 16.4166 -1.68661 
1336 2 64.5146 13.9401 -1.0216 
4557 1 -29.6011 14.0927 51.5812 
2274 1 21.1696 164.019 24.7354 
3317 1 -118.924 15.5501 -1.421 
4951 2 -30.1065 -24.341 -1.98126 
3819 1 108.026 -29.9054 51.1834 
1959 1 22.662 11.9274 51.8008 
2273 1 21.4467 162.532 24.7976 
2945 1 65.9941 66.2283 24.6036 
300 1 -114.76 14.3055 52.107 
4953 1 -30.0213 -24.809 -1.15065 
3773 1 20.2155 106.692 24.3043 
2461 2 -24.955 17.5234 24.13 
298 2 -114.406 14.7636 51.3444 
2944 2 65.8862 67.1792 24.5831 
6079 4 112.706 12.804 -1.13704 
1338 1 63.9135 13.5081 -1.62849 
5034 1 64.3661 20.9714 80.1382 
1337 1 65.3586 13.5163 -1.17736 
5575 2 -23.0086 21.1928 4.67662 
896 1 60.9779 65.8887 -22.1711 
4018 2 68.0973 -33.5098 32.6806 
5945 1 20.5872 23.0235 5.11121 
5108 1 106.965 -25.289 31.503 
4640 1 16.5978 -73.2352 -27.0854 
3563 1 -72.4176 116.089 -25.2955 
5993 1 -75.7388 -34.488 -26.6559 
5577 1 -23.1576 22.1382 4.69085 
3624 1 -73.9519 -81.2099 58.7246 
1806 1 17.1307 -81.4331 56.6834 
897 1 61.9449 64.8575 -22.7129 
5881 2 18.7872 -28.0496 59.5548 
2427 1 -24.6612 105.651 3.30215 
2425 2 -24.9572 106.415 3.79636 
4639 2 15.6518 -73.2347 -26.9396 
1805 1 17.4711 -80.8203 55.3415 
1804 2 16.8681 -81.4328 55.7629 
2367 1 -25.5268 -30.2372 3.26724 
5913 1 -72.9832 21.8038 5.09303 
3622 2 -73.5166 -81.8918 58.2129 
3623 1 -72.5928 -81.819 58.4527 
2426 1 -24.2573 106.578 4.42879 
5911 2 -73.729 21.2068 5.03322 
3562 2 -72.2447 115.258 -24.8516 
4641 1 15.4959 -72.4755 -26.3778 
1433 1 -30.4118 -28.7876 29.4033 
2365 2 -25.9504 -29.4 3.07771 
196 2 21.7165 -26.8595 -0.0208435 
5576 1 -23.24 20.9267 3.78675 
5033 1 64.339 20.9921 81.6518 
2013 1 16.8539 17.0928 56.2615 
2366 1 -25.3098 -28.9204 2.55244 
629 1 66.3379 61.894 29.297 
3564 1 -72.6567 115.355 -23.993 
628 2 66.356 61.923 30.2536 
5882 1 19.1522 -28.5807 58.8469 
3305 1 67.1946 14.3785 54.1732 
3306 1 65.798 14.9448 54.3174 
4030 2 -29.109 14.4276 4.62353 
3304 2 66.7072 15.098 54.5745 
4269 1 -24.863 68.353 56.5383 
723 1 68.2433 -33.8018 26.8981 
4020 1 68.1475 -32.5559 32.62 
5032 2 63.8013 20.7835 80.8878 
5883 1 19.5427 -27.5963 59.9289 
630 1 66.2038 61.0175 30.5241 
198 1 21.7807 -27.8121 -0.088104 
2011 2 17.0816 16.5292 57.001 
3271 2 -29.5353 62.1091 27.7164 
2012 1 17.9071 16.8857 57.3292 
5380 2 22.3403 64.391 27.1756 
4031 1 -28.9672 15.0105 3.87764 
1041 1 21.4297 -73.5158 59.6151 
4267 2 -23.9264 68.1684 56.4678 
4268 1 -23.8391 67.6789 55.6499 
1548 1 68.0627 63.9402 58.4154 
5382 1 21.986 63.5018 27.1704 
5463 1 68.4968 61.6978 -24.4635 
1432 2 -30.3536 -28.8361 28.4491 
3272 1 -29.0891 62.7373 27.1485 
3273 1 -29.272 62.3574 28.6025 
5912 1 -73.3911 20.3683 5.34778 
1434 1 -30.3601 -27.9231 28.1616 
1546 2 68.1796 63.4911 59.2526 
4032 1 -28.7454 14.9019 5.37125 
5944 2 19.7653 22.6513 5.43088 
895 2 61.0648 65.2111 -22.8416 
197 1 21.1024 -26.611 -0.711748 
769 2 5.7975 -62.1151 38.4803 
770 1 4.97378 -61.7494 38.8027 
6016 3 7.53623 34.8878 10.1373 
2717 1 3.29483 26.0086 33.8542 
4968 1 50.8444 -106.249 -15.2216 
15 1 9.42595 29.0473 11.0465 
6003 3 56.5503 -67.0448 11.775 
771 1 6.46134 -61.7788 39.0824 
5955 1 54.2594 31.7895 -43.8483 
5954 1 54.9822 32.8447 -44.6581 
5953 2 54.3346 32.7369 -43.9616 
2558 1 50.2081 -65.4859 39.0472 
4086 1 -35.2421 -21.1858 88.4767 
14 1 8.40149 28.0877 10.4795 
13 2 9.3447 28.214 10.5827 
6140 4 9.45156 30.356 39.1666 
2739 1 -90.1062 23.5091 -17.2542 
1243 2 2.66762 75.9101 11.4335 
2716 2 3.90268 26.6571 33.499 
5314 2 54.5888 -21.4417 -15.2942 
471 1 -40.355 -21.9408 12.3273 
1244 1 2.35982 76.4535 10.7082 
520 2 4.33159 24.2153 11.0408 
318 1 45.869 -60.6156 38.0055 
2738 1 -90.4488 24.8689 -16.6838 
3747 1 6.99478 24.132 -45.0409 
5315 1 54.1279 -21.6763 -16.0997 
2559 1 51.2901 -66.3845 39.6072 
595 2 10.4611 27.6262 35.1285 
597 1 10.0652 28.0145 35.9087 
2557 2 51.0826 -65.8259 38.8581 
5432 1 56.5234 171.317 10.7262 
5325 1 50.716 75.8146 37.1123 
3568 2 -88.7469 -18.2754 -19.1059 
5999 1 48.5126 -13.4421 66.4592 
596 1 11.3804 27.8898 35.1695 
509 1 98.2281 -60.4534 35.2262 
4499 1 139.42 79.4848 7.52751 
4498 2 138.541 79.1111 7.59224 
5324 1 50.6122 77.3189 37.2471 
4500 1 138.672 78.2592 8.00847 
3391 2 46.6719 -21.7798 -19.6986 
5323 2 50.476 76.6034 36.626 
3009 1 147.986 31.4536 -18.3106 
2728 2 53.8878 79.2424 6.9272 
5998 2 49.3357 -13.9008 66.6279 
3460 2 -34.3741 -13.7183 38.7957 
3569 1 -88.1411 -17.7749 -18.5594 
2718 1 3.6089 27.4895 33.8692 
4172 1 46.601 -15.8355 10.9397 
4171 2 46.8042 -16.0874 10.0389 
610 2 9.203 -12.0368 8.11949 
3427 2 -87.3171 34.415 -19.7505 
3570 1 -89.4432 -18.5452 -18.5071 
3746 1 7.54247 25.4926 -45.4159 
3007 2 147.488 32.1605 -18.7219 
3428 1 -86.5645 33.9495 -19.3854 
3461 1 -35.2644 -14.0271 38.6275 
3429 1 -86.9963 34.7805 -20.575 
1832 1 1.65981 75.686 60.7235 
4173 1 45.9508 -16.1608 9.61186 
508 2 97.4816 -60.3495 35.8162 
3745 2 7.47235 24.8805 -44.6833 
611 1 10.1324 -12.2416 8.01747 
2730 1 54.6658 78.9435 7.39793 
1245 1 2.77491 76.5211 12.1625 
510 1 97.508 -61.1258 36.3756 
3008 1 148.114 32.5847 -19.3085 
4084 2 -35.0301 -21.9584 87.9529 
3392 1 47.0648 -22.0481 -18.868 
210 1 96.531 23.4612 61.7952 
522 1 3.649 24.8562 10.8419 
2242 2 -90.6777 32.0769 12.4035 
3452 1 -85.473 30.1575 88.7082 
3423 1 54.8063 74.9881 -20.1563 
3462 1 -34.4764 -13.0471 39.4704 
3421 2 54.1338 75.0283 -20.8363 
3451 2 -85.018 30.2773 87.8747 
3453 1 -84.5425 29.4573 87.7409 
906 1 2.98946 23.8163 39.5545 
2729 1 53.4571 78.4374 6.63984 
5157 1 -44.8084 26.0634 6.04455 
276 1 -126.06 -23.2134 7.85677 
3393 1 45.867 -22.2942 -19.7606 
4154 1 1.6293 74.9572 66.3464 
521 1 4.725 24.0125 10.1921 
2737 2 -89.7531 24.3908 -17.1351 
5316 1 54.0298 -21.7745 -14.5921 
3847 2 53.1127 -61.3177 13.3491 
3849 1 53.8807 -61.7264 12.9499 
3848 1 53.4311 -60.4762 13.6758 
1317 1 -38.6417 -21.578 14.0077 
2705 1 56.8668 -14.4418 -66.9168 
551 1 50.2642 -62.7503 95.4779 
5331 1 54.1415 -17.0264 41.7231 
4153 2 1.03834 74.3962 66.8487 
5655 1 3.69395 -17.6419 41.0773 
552 1 51.7483 -62.4837 95.3429 
5653 2 3.83437 -18.3257 41.7323 
927 1 55.1247 -18.7683 40.9678 
6000 1 49.07 -14.7837 66.885 
5855 1 47.6698 31.124 41.8339 
925 2 55.7199 -19.517 41.0059 
4697 1 -82.0452 -12.4363 -12.5784 
5330 1 54.051 -17.3049 40.2378 
4696 2 -82.9864 -12.3789 -12.4137 
6126 4 2.8473 30.6527 13.314 
550 2 51.0495 -62.563 95.9922 
926 1 55.1458 -20.2742 41.1215 
5329 2 53.7684 -17.6389 41.0891 
4155 1 0.836835 74.9032 67.6352 
18 1 48.9362 -19.8988 14.3968 
1315 2 -38.0671 -21.3682 14.744 
470 1 -40.7817 -21.488 13.7074 
1835 1 10.7688 -16.2008 40.3126 
5174 1 47.8023 117.243 -12.4568 
2244 1 -89.9819 31.7093 12.9484 
16 2 48.5594 -20.6978 14.0282 
17 1 47.9262 -20.3879 13.3807 
469 2 -40.0307 -21.5027 13.1141 
590 1 -31.2906 117.661 65.5394 
6092 4 58.7523 118.899 6.01096 
4699 2 103.465 -68.4258 64.4335 
331 2 13.969 76.8396 7.31134 
4701 1 103.736 -68.1855 63.5477 
4700 1 104.094 -69.0946 64.7043 
332 1 13.6477 75.9381 7.33083 
4784 1 -31.941 70.7035 33.8992 
5431 2 57.3767 171.486 10.3268 
3377 1 -33.3182 76.1891 65.1392 
3855 1 58.5024 80.3959 10.393 
3376 2 -32.9861 75.3482 65.4534 
3378 1 -32.0676 75.5165 65.6641 
3853 2 59.1926 80.5226 9.74202 
3854 1 59.8699 79.891 9.98431 
5857 2 13.4649 74.0898 7.50952 
5500 2 60.6743 -14.5574 -42.1836 
2895 1 106.284 25.6175 36.9046 
2811 1 59.7078 81.6297 35.7924 
333 1 14.1129 77.063 8.2309 
5859 1 14.1563 73.7073 8.04967 
2893 2 106.566 26.3914 36.4172 
5858 1 13.2829 73.4244 6.84596 
4085 1 -34.103 -21.8558 87.7382 
5433 1 57.5666 172.399 10.5433 
2207 1 58.9724 32.6779 61.3257 
2206 2 58.1309 33.0925 61.1349 
2208 1 58.3197 33.7009 60.4204 
589 2 -31.1573 117.858 64.6122 
3675 1 59.8641 -15.8765 -48.1759 
1836 1 12.2135 -16.5716 40.572 
2704 2 57.1178 -13.5863 -66.5686 
1237 2 12.5098 -65.7742 14.5731 
2706 1 57.8721 -13.3243 -67.0965 
1239 1 11.5812 -66.005 14.5469 
1632 1 14.3985 81.5395 -40.4042 
2943 1 58.5724 71.4249 13.7184 
2942 1 58.259 72.7764 14.3243 
1631 1 13.9861 80.3685 -41.2706 
1630 2 13.6514 80.9789 -40.6136 
1834 2 11.458 -16.1432 40.9744 
2941 2 58.118 72.2479 13.5387 
2691 1 -31.1588 -20.0649 -13.5464 
5493 1 66.3812 -63.404 36.7179 
5491 2 66.3142 -63.9188 35.9137 
5492 1 65.409 -63.7985 35.6265 
3987 1 111.923 23.9827 11.011 
3985 2 111.723 23.9394 11.946 
2619 1 63.5436 125.301 9.12274 
6102 4 66.5044 -13.3942 34.1722 
164 1 108.706 80.3922 -20.3637 
2617 2 63.9648 124.811 8.41635 
2618 1 63.9429 125.406 7.66618 
2007 1 110.795 79.7138 33.575 
2005 2 109.93 79.3725 33.3489 
1225 2 19.5568 120.71 9.89658 
1227 1 19.9521 119.897 9.58082 
1226 1 19.9618 120.857 10.7512 
323 1 -72.0368 -12.8434 -42.3458 
3066 1 16.7236 26.5819 35.1625 
807 1 63.9539 75.1165 -17.3166 
2844 1 -73.415 79.5194 65.4349 
805 2 63.1 75.5393 -17.4079 
806 1 63.2708 76.3112 -17.9474 
2894 1 107.19 26.8264 36.9981 
5141 1 -116.027 30.4294 66.0168 
3294 1 -24.4962 25.0954 35.2866 
5915 1 -73.7349 -20.0623 33.1709 
3064 2 17.6316 26.5247 34.8649 
3065 1 18.1489 26.8182 35.6148 
3292 2 -24.9836 24.7503 36.0347 
2380 2 67.9016 31.3862 34.2696 
2898 1 67.743 73.8805 39.4862 
2896 2 66.8261 74.1553 39.4802 
2806 2 -22.9965 28.3068 62.2033 
2382 1 67.3893 32.1515 34.0088 
3986 1 110.802 23.6824 11.9825 
2381 1 67.3058 30.8731 34.8154 
2843 1 -74.1086 80.4155 64.431 
4533 1 -73.133 -21.7407 -19.9433 
2808 1 -23.9408 28.3608 62.3508 
2842 2 -74.1 79.519 64.7664 
4531 2 -72.6061 -22.5359 -20.0221 
163 2 108.069 81.0383 -20.0589 
3931 2 22.1194 25.772 -20.1299 
3831 1 -24.0474 -13.3182 90.1442 
3829 2 -23.7233 -13.0399 91.0008 
3830 1 -24.5139 -12.8764 91.515 
2526 1 -23.8056 79.759 12.4714 
1308 1 -23.7815 -105.813 7.41113 
3932 1 21.5928 26.4225 -20.5945 
3293 1 -24.4398 24.0359 36.3665 
5501 1 60.9361 -15.2741 -41.6056 
5217 1 65.2292 81.7183 -47.3184 
3865 2 -28.2437 -11.9501 9.47451 
3866 1 -28.404 -12.2009 8.56476 
3933 1 22.7189 26.2887 -19.5915 
322 2 -71.8355 -11.9994 -42.7499 
324 1 -72.486 -11.9053 -43.4458 
4532 1 -72.0423 -22.5279 -19.2487 
5193 1 107.894 29.737 66.6042 
5502 1 61.4655 -14.3483 -42.6801 
5142 1 -117.252 31.2834 65.7687 
6115 4 -26.6015 79.4356 -14.6966 
5140 2 -116.753 30.5515 65.4056 
5192 1 108.031 28.8381 65.3937 
165 1 107.389 81.0419 -20.7331 
5191 2 107.504 28.9726 66.1808 
2897 1 66.8601 75.1013 39.3385 
6066 3 -25.4707 -21.2094 13.9368 
2525 1 -25.1853 79.8724 13.0842 
3843 1 16.9894 26.0309 68.0331 
3841 2 17.8797 25.856 68.3381 
3795 1 -68.984 -62.844 -13.7699 
2494 2 108.928 -106.582 14.2487 
1011 1 16.3113 32.9948 -39.4348 
4360 2 17.5684 -16.3045 94.6554 
2495 1 109.488 -107.095 13.6663 
3793 2 -69.1669 -63.7286 -14.0866 
4362 1 18.143 -16.8424 95.2001 
3794 1 -68.5914 -64.2923 -13.5697 
4361 1 18.1495 -15.6513 94.2658 
5476 2 -23.0918 -21.1886 14.5753 
359 1 16.3227 -58.63 68.6641 
2690 1 -29.7925 -19.5 -13.872 
2524 2 -24.2639 80.0706 13.2519 
593 1 -74.0651 -23.0718 13.1905 
2689 2 -30.2254 -20.2742 -13.5122 
4966 2 51.2021 -105.462 -15.633 
1748 1 -91.1434 39.8141 11.0696 
1448 1 7.48628 43.5007 6.46951 
1288 2 92.4039 -3.71607 -17.9777 
1277 1 54.9151 -0.786369 34.7394 
2171 1 1.09838 -2.01566 -47.4442 
1290 1 92.5308 -3.39803 -17.0839 
5213 1 101.866 89.4505 33.724 
2003 1 3.44822 45.6661 39.6247 
1449 1 7.8436 44.8857 5.9737 
5145 1 102.444 86.2027 6.1693 
4272 1 47.4886 -8.68169 33.3648 
885 1 50.7351 -4.07352 -15.3935 
827 1 -80.5021 86.7022 62.8085 
5421 1 92.3527 45.5137 38.7377 
960 1 -41.8985 -58.3497 36.0856 
959 1 -41.4325 -57.839 37.4324 
958 2 -42.1273 -57.7345 36.7823 
1276 2 54.6551 -0.741747 33.8193 
6130 4 49.3383 -2.94066 39.1523 
5143 2 102.538 85.2794 5.93502 
3541 2 144.772 39.4041 39.4878 
6083 4 54.752 37.1371 -19.8929 
5348 1 -34.3186 -8.87905 36.1445 
1618 2 56.3153 86.1416 38.0311 
821 1 53.1174 37.0026 60.4295 
1199 1 9.04979 -6.64978 88.5611 
219 1 49.7412 89.7889 8.58634 
1882 2 9.05416 82.252 66.1654 
612 1 9.13157 -11.1153 7.87053 
3543 1 145.181 40.2239 39.2104 
217 2 49.3423 90.5452 8.15598 
2375 1 56.2011 45.1394 8.67573 
2170 2 1.85293 -1.52824 -47.1135 
1884 1 9.68258 82.856 65.7697 
5419 2 92.3758 44.5583 38.7912 
1032 1 50.8956 -9.39816 34.2487 
5349 1 -34.9876 -9.83234 35.1773 
4439 1 5.02144 -0.644117 62.9234 
218 1 49.2732 90.2891 7.23626 
884 1 51.4153 -4.92343 -16.4456 
4724 1 -45.2065 40.5763 -20.5384 
287 1 47.4165 83.3661 9.91836 
2376 1 57.0192 45.8657 9.72223 
286 2 46.5009 83.4247 10.1912 
288 1 46.2465 82.5201 10.3737 
883 2 51.5771 -4.4693 -15.6186 
5188 2 50.3542 -6.6022 33.896 
1289 1 93.2778 -3.69158 -18.3675 
2767 2 53.037 37.1761 9.46745 
961 2 4.72321 -48.6 10.0885 
1031 1 49.837 -9.56299 35.3183 
1619 1 56.2088 85.7485 38.8973 
1747 2 -91.0188 40.736 11.295 
2769 1 53.8234 37.338 8.9462 
2353 2 -38.2051 45.05 37.8248 
2355 1 -39.0456 45.2777 37.4274 
2768 1 52.5944 38.024 9.50372 
1030 2 49.9688 -9.23892 34.4273 
6006 3 -37.7526 90.0454 12.5695 
687 1 6.12541 -51.1012 8.74677 
2354 1 -37.6568 45.8222 37.6857 
4270 2 47.3922 -9.20056 34.1633 
1200 1 8.78079 -8.07861 88.1392 
5357 1 50.6541 -8.02299 91.4845 
5190 1 50.3589 -7.50966 34.2006 
1198 2 8.38975 -7.20495 88.1459 
1749 1 -90.0967 40.9074 11.1037 
2172 1 2.2579 -2.11628 -46.476 
685 2 6.7697 -51.2651 8.0581 
5356 2 51.4379 -7.71287 91.0309 
430 2 2.83892 41.5661 38.0667 
828 1 -80.0427 88.1447 62.8083 
2374 2 56.4132 46.0159 8.9967 
5144 1 101.672 84.9027 6.09164 
5420 1 93.3014 44.347 38.9131 
4078 2 100.29 -50.0355 36.107 
4080 1 99.5432 -50.4803 35.7069 
686 1 6.5027 -52.1 7.67343 
826 2 -80.4233 87.4714 62.2443 
4079 1 99.9207 -49.5769 36.8615 
2845 2 54.69 41.3455 -16.2134 
6149 4 50.3151 41.4724 36.2367 
3542 1 144.357 39.0628 38.6957 
963 1 4.25623 -49.1932 9.49999 
431 1 3.40579 41.5019 37.2981 
1694 1 -79.9832 46.787 60.2053 
432 1 3.0887 42.3922 38.4808 
962 1 4.38297 -48.8081 10.9586 
5189 1 50.3381 -6.07999 34.6981 
5358 1 51.178 -6.87475 90.6484 
4271 1 48.2898 -9.36642 34.4516 
2847 1 54.8581 41.8826 -16.9876 
6036 3 4.02644 46.4231 5.93274 
2846 1 55.335 40.6402 -16.266 
1639 2 3.50571 38.9429 66.1138 
4487 1 101.072 46.7176 10.1495 
1278 1 55.3593 -1.18802 33.349 
1641 1 3.37901 39.8303 65.778 
4967 1 51.3511 -104.857 -14.9059 
1640 1 2.76804 38.8034 66.7076 
4782 1 55.8785 -1.71389 66.7416 
389 1 54.957 -57.7331 5.91537 
4398 1 3.01421 41.4217 32.9679 
5901 1 92.3038 38.0664 67.426 
4781 1 54.8884 -1.00825 67.6437 
2004 1 4.3975 46.7911 39.9783 
1883 1 8.69121 82.7356 66.9075 
666 1 4.5013 -8.96498 -14.2561 
5900 1 92.1114 38.5813 68.8366 
3117 1 11.3325 83.8366 41.3467 
4780 2 55.1202 -1.87254 67.3038 
1914 1 -34.6203 -4.4424 40.2976 
664 2 5.09671 -9.54648 -13.7832 
5899 2 92.7847 38.414 68.1771 
5709 1 49.4749 40.9255 14.7748 
1559 1 55.4714 -55.0969 41.6522 
3145 2 2.43578 -3.0344 14.6117 
3652 2 -85.6171 91.5612 -13.4945 
3115 2 10.8605 84.2285 40.612 
953 1 8.24212 84.5647 -13.7322 
954 1 6.81247 84.0991 -13.5556 
2306 1 6.20056 39.9886 67.71 
952 2 7.70875 83.9148 -13.2746 
3653 1 -86.3211 91.2363 -14.0558 
3146 1 2.43229 -3.96258 14.8456 
4109 1 55.3257 88.3191 41.7597 
2307 1 4.92963 40.4718 67.0443 
5768 1 2.65987 37.5085 14.8236 
665 1 4.70249 -9.64002 -12.916 
2305 2 5.31666 40.3011 67.903 
4698 1 -83.1767 -11.441 -12.4336 
1568 1 46.4173 44.8624 41.5491 
4108 2 55.0531 89.1474 41.3651 
3147 1 2.79584 -3.01167 13.7251 
1569 1 46.1847 46.3397 41.7845 
3654 1 -85.3285 92.3707 -13.9158 
3116 1 11.2566 83.8347 39.8347 
2002 2 3.48455 46.6142 39.7516 
4147 2 148.632 46.1723 11.5577 
1910 1 106.434 83.8395 91.9964 
2810 1 60.7697 82.081 34.8124 
6030 3 58.7359 37.2179 33.7119 
5362 2 14.2879 -0.454693 38.4214 
2668 2 -31.3942 90.9951 39.662 
129 1 103.923 44.4683 -20.5697 
128 1 105.402 44.3284 -20.8567 
127 2 104.729 44.0892 -20.22 
1459 2 14.5704 93.7143 35.4721 
2670 1 -31.7279 90.5327 38.8932 
5364 1 15.1747 -0.732381 38.1919 
1909 2 105.515 83.7077 91.7629 
4149 1 148.692 46.7426 12.324 
3093 1 105.742 -4.57077 33.993 
1661 1 13.312 44.2883 -45.6382 
2809 2 59.9392 82.3494 35.2054 
3091 2 106.141 -5.42128 33.8097 
2395 2 14.6359 -6.46895 39.4524 
1282 2 58.8036 86.8259 10.0191 
3836 1 103.662 -3.86231 -44.2934 
1620 1 57.2139 86.4712 38.0259 
5347 2 -34.135 -9.60498 35.5483 
3835 2 103.188 -4.63953 -43.9975 
1284 1 58.4921 87.7282 10.0892 
1662 1 13.9471 44.9842 -44.4532 
4021 2 -79.6291 -10.5844 92.5324 
4148 1 149.479 45.7285 11.5211 
4023 1 -78.6799 -10.4705 92.5804 
2669 1 -31.3419 91.9106 39.3875 
4244 1 -31.8654 86.1087 62.6383 
4022 1 -79.8366 -10.4803 91.6037 
3837 1 103.164 -4.55773 -43.0441 
1660 2 13.3713 44.2551 -44.6834 
4243 2 -31.3663 85.9416 61.8388 
4245 1 -31.2309 86.8079 61.4549 
1283 1 59.476 86.7508 10.6963 
1911 1 105.541 83.1128 91.0135 
4905 1 60.7643 -2.38358 14.3099 
2397 1 14.5608 -7.00762 40.2401 
1912 2 -33.7832 -4.24426 39.8778 
1913 1 -33.1575 -4.19692 40.6006 
4378 2 13.352 177.682 41.922 
4139 1 -34.2124 -1.01867 14.6376 
2396 1 14.5731 -5.56839 39.7706 
4380 1 13.9946 177.06 41.5811 
4527 1 -75.5388 -51.9257 62.979 
1531 2 113.543 41.3434 33.5084 
4526 1 -75.0793 -50.7185 63.7685 
1138 2 -25.32 44.5725 -21.1093 
3092 1 106.75 -5.25093 33.0908 
1532 1 113.903 42.2282 33.4504 
5908 2 110.051 88.6487 61.586 
1335 1 64.6519 -49.8493 -14.5333 
6112 4 18.2472 46.4482 36.49 
681 1 -69.3119 93.2963 35.3651 
2140 2 16.519 45.3667 7.6776 
381 1 -24.3947 36.8627 66.101 
1139 1 -25.5128 44.5105 -20.1737 
5611 2 62.6306 40.6753 -43.1933 
5215 2 64.7141 82.5225 -47.3832 
2141 1 17.1344 45.717 8.32157 
1108 2 67.2464 86.8256 8.73046 
5910 1 109.843 88.9056 60.6876 
3200 1 17.1382 -2.37127 -15.9331 
755 1 15.7383 -8.72696 34.5778 
2142 1 16.4063 44.4496 7.9275 
3199 2 16.7079 -1.54159 -16.1397 
211 2 22.562 90.7874 11.0878 
2324 1 65.4783 -4.98417 9.15403 
6025 3 22.4083 40.9308 64.9557 
212 1 22.1788 90.935 10.2232 
5216 1 63.8215 82.2225 -47.5552 
3636 1 108.753 38.0865 64.7448 
4525 2 -74.9211 -51.1949 62.9535 
3647 1 22.586 129.046 -43.5159 
3218 1 65.3797 -0.711479 39.4046 
280 2 112.683 -9.57278 35.8342 
3635 1 107.949 37.4495 65.8579 
2323 2 65.8718 -4.72521 9.98725 
3867 1 -28.5832 -11.0576 9.54082 
754 2 16.5087 -9.22544 34.3054 
3 1 64.9883 39.7113 -17.1114 
1 2 64.1814 39.3484 -17.4767 
1460 1 15.3263 93.1715 35.2481 
2113 2 -25.4887 91.8689 -18.1683 
3634 2 108.139 37.3743 64.9228 
1306 2 -23.1507 -105.118 7.223 
680 1 -68.5349 92.2274 34.6266 
3201 1 17.3248 -1.08769 -16.7139 
380 1 -25.8992 36.6995 66.1417 
6059 3 18.9699 84.7085 35.0302 
5612 1 61.7356 40.77 -42.8675 
2092 2 65.938 -53.939 65.9069 
2093 1 66.1164 -54.8336 66.197 
1333 2 65.381 -49.235 -14.6187 
2325 1 65.155 -4.78137 10.619 
281 1 113.048 -10.2007 35.2105 
282 1 113.185 -9.71266 36.637 
5909 1 109.256 88.8472 62.0819 
2 1 63.4813 39.8417 -17.0491 
379 2 -25.1892 37.2552 66.463 
1109 1 67.4658 87.2565 7.90437 
3646 2 22.8217 129.915 -43.1905 
213 1 21.8266 90.8742 11.6943 
1110 1 67.2027 85.8948 8.51146 
2114 1 -25.7543 91.0556 -17.7391 
756 1 16.2814 -9.56438 33.4395 
5613 1 63.1688 40.6199 -42.4038 
2115 1 -26.1854 92.4903 -17.957 
2094 1 65.1524 -53.6823 66.3898 
4827 1 63.0249 -1.22117 5.93873 
4892 1 108.944 -4.749 67.3087 
4797 1 -24.5654 35.1905 41.4221 
6081 4 18.1971 -6.43636 -13.7884 
1334 1 66.023 -49.5335 -13.9745 
4008 1 107.865 -47.6661 68.2557 
285 1 66.4921 -3.91724 14.6897 
4893 1 108.356 -3.39565 67.6476 
283 2 67.0065 -3.1757 14.3707 
3226 2 22.7504 87.6449 40.7176 
360 1 15.9551 -57.2693 68.1116 
4795 2 -24.9255 36.0355 41.6916 
4796 1 -25.2749 36.4155 40.8856 
1581 1 62.7155 -7.8552 -13.8133 
358 2 15.5798 -58.0397 68.538 
1580 1 61.7529 -8.28109 -12.7252 
3881 1 65.2617 -6.0172 41.6785 
1579 2 62.182 -8.5944 -13.5214 
4903 2 61.6908 -2.41587 14.548 
1973 1 17.2482 134.86 41.7108 
3228 1 21.939 87.8947 41.1597 
4891 2 108.863 -3.85448 66.9777 
4672 2 96.7216 -67.7508 17.6336 
4674 1 96.9995 -67.2682 16.8551 
2918 1 9.55716 -19.5543 18.3096 
4427 1 10.8924 79.3396 -10.3557 
4673 1 96.3864 -68.5808 17.2945 
4623 1 50.3841 -15.4531 16.2036 
1744 2 8.02065 -66.4862 17.593 
1745 1 7.67988 -66.8749 18.3987 
4426 2 10.7779 78.3896 -10.3299 
4494 1 48.3102 121.63 44.8433 
4428 1 11.2716 78.0679 -11.0842 
2917 2 10.4334 -19.4603 18.6833 
4622 1 50.3134 -15.6743 17.6995 
1746 1 8.11253 -67.2243 16.9906 
4621 2 49.7813 -15.4179 16.9463 
1490 1 52.6153 -62.9503 72.2974 
2867 1 53.2272 -107.465 71.9105 
5856 1 48.1149 31.2988 43.2703 
4883 1 7.60756 71.3254 -8.36507 
4492 2 48.114 121.909 43.9489 
2637 1 2.08046 71.033 -9.85073 
215 1 -40.7083 27.7587 -35.3866 
4493 1 47.5151 122.648 44.054 
5173 2 47.8077 117.871 -11.735 
3938 1 52.4399 75.301 42.0687 
3982 2 50.3555 70.5973 -64.7684 
2866 2 53.6872 -107.501 72.7491 
2868 1 53.9852 -108.408 72.821 
5661 1 51.1222 33.8919 17.222 
5659 2 50.5962 34.2642 17.9299 
5654 1 3.18728 -18.1421 42.4134 
254 1 46.595 27.4743 -62.4425 
4059 1 6.75722 -61.5397 -11.151 
2635 2 1.48512 71.0064 -9.10166 
912 1 53.7746 -22.8002 69.7404 
816 1 54.1346 -64.4462 71.7097 
5854 2 47.3401 31.1356 42.7324 
3539 1 8.93897 23.8622 17.5251 
4058 1 7.40128 -60.1947 -11.412 
5175 1 47.7823 118.727 -12.1623 
3937 2 51.9575 74.5969 42.5021 
2636 1 0.634723 71.2579 -9.46194 
815 1 54.944 -63.1723 71.5921 
814 2 54.0712 -63.4969 71.814 
5094 1 93.0113 -12.9393 -9.25751 
4057 2 6.9172 -60.6862 -10.7484 
5092 2 93.5578 -12.7621 -8.49188 
1489 2 51.806 -62.8966 72.8057 
4204 2 56.4583 34.3482 19.1858 
3939 1 51.0438 74.7475 42.2596 
1316 1 -38.3864 -20.5248 15.0648 
3540 1 10.098 24.4431 18.3069 
3984 1 49.5011 70.7375 -65.1766 
3538 2 9.19155 24.6187 18.0544 
1163 1 -34.6154 34.9046 -11.5353 
5386 2 -44.9228 80.3737 43.7711 
4882 2 6.74963 71.2116 -7.95615 
4884 1 6.23443 71.9555 -8.26819 
5388 1 -44.6038 79.533 43.4427 
2919 1 10.976 -20.0656 18.1779 
253 2 45.6882 27.581 -62.7299 
1491 1 51.6939 -63.774 73.1716 
5093 1 94.4546 -12.8815 -8.80434 
4206 1 55.8514 34.7874 18.59 
2752 2 48.2285 27.797 -7.67629 
4647 1 -35.9443 28.4389 20.3019 
4645 2 -36.1633 29.2409 20.7763 
1252 2 93.5683 25.4345 50.1983 
5984 1 9.5367 25.8713 21.4444 
5983 2 8.71058 25.4164 21.2806 
5985 1 8.07565 26.1175 21.1335 
4502 1 -39.5173 126.352 104.148 
661 2 3.03188 76.262 -57.9028 
662 1 3.22697 77.1833 -58.0742 
4458 1 48.4739 78.9747 75.7389 
3211 2 97.2819 -21.997 23.209 
4501 2 -39.4982 126.638 105.061 
5845 2 50.7153 27.7011 50.2231 
3212 1 97.1569 -21.0951 23.5043 
4646 1 -37.0728 29.1182 21.0482 
1254 1 93.1754 25.9386 50.9109 
1253 1 94.0088 24.7053 50.6347 
3011 1 -41.261 81.7678 -31.7591 
2753 1 47.7813 28.4078 -7.09045 
2020 2 -34.8877 122.754 23.2198 
5234 1 94.6905 72.7972 76.0974 
2021 1 -35.1808 122.783 22.3091 
5233 2 95.3249 73.0786 75.4381 
2662 2 1.17734 29.2574 -5.94963 
4456 2 48.8622 78.8459 76.6043 
4457 1 48.4773 79.5357 77.145 
5846 1 50.433 27.0995 49.5341 
5847 1 50.0026 28.3361 50.2941 
5235 1 95.8865 72.3151 75.3042 
2663 1 1.57806 29.2316 -5.08073 
2664 1 1.20381 30.1812 -6.19878 
4851 1 -36.8222 -12.0844 49.4879 
1856 1 50.6749 32.2633 21.4486 
4849 2 -37.3755 -12.4094 48.7776 
3742 2 56.8709 73.1145 21.787 
3337 2 55.1298 31.7917 -32.86 
4850 1 -36.9114 -13.1771 48.4438 
3339 1 55.1558 30.8994 -33.2053 
1111 2 7.12748 121.495 -60.0867 
2022 1 -34.3525 123.54 23.3256 
3004 2 93.2533 23.5027 20.4515 
1112 1 6.4271 121.755 -60.685 
216 1 -41.3919 28.7769 -34.499 
3338 1 54.9823 31.6813 -31.9207 
4273 2 47.2651 32.1705 20.2751 
1857 1 51.4447 31.8572 20.2099 
1113 1 6.75619 121.62 -59.2134 
3743 1 57.0645 72.9996 20.8567 
214 2 -40.5338 28.4046 -34.702 
2511 1 92.6507 -21.0023 -5.34077 
1855 2 51.4703 32.4595 20.9535 
6058 3 6.41918 34.6419 20.2581 
4205 1 55.9605 33.6079 19.5327 
2509 2 92.1451 -20.7685 -6.11914 
3005 1 93.1783 23.7991 19.5445 
4275 1 46.3232 32.2927 20.3938 
2754 1 48.6963 27.2017 -7.09066 
1922 1 0.653621 81.0654 22.2121 
1923 1 1.80585 81.9417 21.769 
1921 2 1.57599 81.25 22.3894 
4274 1 47.5291 32.8866 19.6974 
2510 1 92.3115 -21.4809 -6.73638 
97 2 13.834 33.612 -37.6314 
232 2 -30.6565 26.7986 -36.3261 
1022 1 104.293 24.8968 42.9825 
1238 1 12.8836 -66.3576 15.2335 
3655 2 103.925 -21.6051 18.7908 
1181 1 13.7571 -17.5744 -37.3634 
1021 2 104.082 25.7862 43.2672 
1180 2 14.2865 -17.5773 -38.1609 
1182 1 13.6952 -17.9012 -38.8403 
1023 1 103.897 25.7013 44.2024 
3657 1 104.391 -22.4021 18.5384 
98 1 14.458 33.1201 -38.1652 
99 1 13.0959 33.7788 -38.2176 
234 1 -31.0302 26.7939 -35.4448 
5186 1 -77.5776 -60.8958 18.1236 
233 1 -31.3406 26.4207 -36.8788 
5185 2 -77.2558 -61.0208 19.0164 
1565 1 14.7735 -15.5276 19.273 
1566 1 14.3628 -16.9838 19.3252 
5452 2 13.0719 -18.0416 45.9574 
5787 1 106.493 117.432 72.8606 
5453 1 12.1629 -18.3131 45.8303 
3656 1 104.519 -21.1608 19.3955 
3940 2 -31.7712 28.0218 49.5214 
3153 1 -31.2798 79.3597 23.0051 
3151 2 -31.0085 80.2574 22.8134 
3152 1 -31.4693 80.4798 22.0044 
3942 1 -31.6373 27.6611 48.6449 
3941 1 -31.1369 27.5605 50.0701 
399 1 106.016 -16.1652 -59.78 
397 2 105.961 -16.2691 -58.83 
3744 1 57.5344 73.7314 22.0959 
398 1 105.517 -17.1077 -58.7056 
3691 2 58.7124 -11.8737 -33.476 
2747 1 60.676 34.8682 23.8844 
3693 1 57.8902 -12.3497 -33.5924 
5454 1 13.4029 -18.6239 46.6412 
5187 1 -77.541 -60.237 19.4861 
1068 1 59.918 -68.1279 -86.7569 
1067 1 59.7764 -69.6351 -86.754 
6097 4 14.1683 73.56 47.4077 
1066 2 60.0909 -68.9034 -86.2231 
1564 2 15.0764 -16.3898 19.5579 
2241 1 110.692 29.5848 15.5533 
406 2 64.9599 75.1452 72.4902 
1230 1 67.1652 74.9343 70.5661 
1228 2 66.4861 74.3002 70.336 
1204 2 111.057 -23.3105 42.4566 
1229 1 66.6938 73.5258 70.8589 
4460 1 15.8554 169.882 16.6645 
80 1 16.4528 73.1415 -10.0895 
79 2 17.149 72.5767 -10.4249 
81 1 17.7407 72.458 -9.68192 
1009 2 15.8658 32.4104 -38.8215 
2239 2 110.268 28.8979 15.0391 
408 1 65.3599 74.8759 71.6634 
5710 2 61.5074 70.8624 -39.1758 
1027 2 66.4443 -21.4096 -63.2355 
303 1 -23.4503 -110.942 -37.1066 
6034 3 17.3603 30.0178 46.0711 
1029 1 65.5346 -21.5539 -62.9748 
301 2 -22.9096 -111.726 -37.1996 
4459 2 16.7646 169.817 16.9567 
4337 1 -27.4381 32.6234 44.334 
4541 1 -24.076 78.8092 98.0823 
4461 1 17.2609 169.636 16.1585 
4338 1 -28.8022 32.1806 43.8492 
4336 2 -28.1501 32.0144 44.53 
407 1 64.4582 74.3811 72.7742 
4540 2 -24.3502 77.9292 98.3405 
4542 1 -24.9574 78.0705 99.0669 
2143 2 18.3989 -59.2873 16.6957 
4549 2 -23.4348 80.4817 44.0586 
2240 1 110.811 28.1223 15.1805 
3842 1 17.7949 25.7663 69.2873 
5448 1 -68.5493 -61.5149 42.006 
2496 1 109.416 -106.535 15.0708 
1772 1 22.6995 71.5721 43.5214 
4551 1 -23.7168 81.113 44.7205 
1028 1 66.8018 -20.8404 -62.554 
2145 1 17.8593 -59.5504 17.4413 
6089 4 18.4632 25.7547 73.1804 
1010 1 16.0027 31.5344 -39.1821 
5739 1 19.5837 23.5231 72.349 
970 2 62.0804 34.5641 -35.6394 
972 1 61.1515 34.3356 -35.6731 
3650 1 17.261 -69.0643 -34.9362 
5712 1 61.7096 71.7554 -38.8966 
1157 1 63.4841 33.7519 73.505 
6062 3 68.2652 76.9563 21.0517 
76 2 20.5188 31.1254 -5.03073 
78 1 19.8171 31.7231 -4.77243 
2185 2 19.8181 73.0351 21.2573 
77 1 20.5982 30.5168 -4.29619 
2187 1 20.0928 72.2095 21.6563 
474 1 17.4629 74.2566 48.9543 
2848 2 20.3972 -61.9008 46.5231 
2850 1 20.4268 -62.2775 47.4025 
3912 1 63.4764 126.424 50.1925 
3910 2 64.2474 126.892 49.8719 
473 1 18.7977 73.8764 49.5591 
2990 1 -26.0429 175.271 -4.1505 
3911 1 64.126 126.933 48.9233 
472 2 17.991 74.3564 49.7464 
2008 2 22.6863 -17.2166 23.4531 
5279 1 63.566 -17.6186 21.4455 
2001 1 63.0712 73.9353 19.6684 
2186 1 19.3327 72.7737 20.4748 
565 2 107.166 -20.3524 -30.3062 
3435 1 61.7976 30.5783 77.5211 
5278 2 63.6785 -16.6793 21.2993 
3900 1 20.633 -70.284 -58.2458 
3433 2 62.5587 31.0387 77.8746 
5280 1 63.486 -16.2798 22.1476 
1158 1 64.5545 34.5849 74.1775 
1156 2 64.2218 33.6898 74.1118 
3365 1 22.5239 71.9359 76.4135 
567 1 108.056 -20.1243 -30.5754 
4295 1 21.359 34.5665 21.5104 
4294 2 22.2206 34.5898 21.0941 
2000 1 61.726 74.6138 19.8173 
3520 2 66.7268 -18.4107 -33.9608 
1999 2 62.6419 74.6815 20.087 
3898 2 21.0981 -70.0284 -59.0424 
3651 1 15.9954 -68.7399 -34.1715 
566 1 106.897 -21.0357 -30.9203 
3522 1 66.1413 -18.1757 -34.6806 
3649 2 16.4599 -69.4618 -34.5949 
3521 1 66.3064 -19.1637 -33.5455 
2849 1 19.9445 -61.0649 46.6352 
3610 2 96.3991 93.6808 17.7267 
3589 2 46.7215 -10.1876 -8.0099 
3591 1 47.2944 -10.9269 -8.21344 
619 2 46.8406 -7.97119 71.5955 
5769 1 2.83893 36.2928 15.7079 
4664 1 -36.6178 -8.7236 16.9168 
4238 1 46.1158 91.0299 18.8377 
5767 2 3.32951 36.9826 15.2609 
1567 2 45.8269 45.4753 41.9874 
1558 2 55.2184 -54.2408 41.9976 
3379 2 5.86485 89.0051 18.0277 
2958 1 53.2159 44.8444 -9.51727 
5660 1 50.7354 35.2088 17.861 
3172 2 55.4139 43.2292 -10.2933 
5342 1 49.4606 39.9062 -34.8396 
3354 1 -44.8642 -47.2874 -63.8008 
1151 1 50.7723 45.1059 45.7971 
4890 1 98.7679 39.6522 44.8657 
6144 4 -37.6744 43.607 18.7387 
3612 1 97.0816 93.2891 17.1816 
5708 1 48.405 40.7766 15.8355 
3741 1 9.37079 88.0842 45.8388 
3739 2 8.70865 87.839 46.4851 
621 1 46.5325 -8.83558 71.8677 
5139 1 50.5725 -9.69166 16.7557 
5137 2 51.3168 -9.81344 17.3451 
3380 1 6.68932 89.4434 18.2383 
4110 1 54.9986 89.7573 42.1009 
5707 2 48.6924 41.3508 15.1256 
2292 1 51.304 -52.132 -12.1381 
2584 2 48.9095 91.2853 44.6989 
4888 2 98.8983 39.5735 43.9207 
2585 1 48.3207 91.9931 44.9607 
2586 1 48.6242 91.0502 43.8159 
2957 1 52.8561 44.8935 -10.987 
5138 1 52.0754 -9.52852 16.8357 
5343 1 48.305 40.1537 -35.7858 
5341 2 48.8491 40.5845 -35.1265 
2123 1 56.951 87.8856 19.0322 
4663 2 -36.5964 -9.38434 17.6091 
5507 1 53.7195 -10.0609 45.8823 
620 1 46.2122 -7.69102 70.93 
2122 2 56.8319 88.0542 18.0975 
1152 1 52.0569 44.4136 46.2 
2956 2 52.8054 45.4024 -10.1779 
4665 1 -35.8345 -9.92523 17.401 
4140 1 -34.5636 -2.23932 15.4614 
881 1 51.1563 -56.0613 46.2307 
4889 1 98.4604 40.3413 43.5533 
3174 1 54.7041 43.288 -9.65384 
1560 1 54.3319 -54.3704 42.3345 
3173 1 56.0825 42.6973 -9.86161 
1162 2 -34.8328 35.7651 -11.177 
2290 2 51.6392 -51.3591 -11.6837 
2291 1 51.2999 -50.6189 -12.1869 
3381 1 5.79848 89.0637 17.0747 
3352 2 -43.9753 -47.1803 -63.4622 
6004 3 49.6051 42.8284 19.3347 
3590 1 45.8647 -10.5841 -7.8522 
4687 2 0.134773 -5.32327 20.6569 
1931 1 101.858 -1.91387 47.2153 
5322 1 47.865 83.7709 -6.70841 
5833 2 5.98765 132.778 22.1022 
3077 1 47.9521 46.7935 21.8358 
2110 2 54.1639 85.4636 75.144 
4002 1 1.48977 85.0728 48.79 
5835 1 6.92551 132.864 21.9312 
2152 2 98.5813 92.8098 21.2072 
2154 1 97.904 92.4904 20.6109 
2153 1 99.1479 93.3521 20.6584 
2111 1 54.2162 86.3762 74.86 
4688 1 0.528596 -6.16681 20.8796 
5229 1 92.6691 42.7084 74.7717 
3928 2 -34.9873 -4.2949 -4.01112 
5834 1 5.84562 133.267 22.9126 
2131 2 1.17681 -5.80729 50.688 
5321 1 49.1555 84.4883 -6.3741 
2132 1 1.35435 -6.53522 50.0924 
1932 1 101.138 -3.10034 46.6103 
5458 2 -41.6023 -1.09571 75.844 
5320 2 48.4167 84.0323 -5.97115 
5227 2 93.2673 43.4556 74.7825 
4580 1 -34.3332 -11.6636 23.7049 
1175 1 -41.0206 -3.58564 -31.6649 
4000 2 0.732349 85.6117 49.0184 
3078 1 47.1525 46.1079 22.9232 
5459 1 -41.2743 -1.72459 75.2013 
880 2 50.5765 -55.6816 46.891 
5228 1 93.2309 43.7792 75.6826 
1930 2 101.948 -2.85372 47.0577 
3179 1 55.0639 88.3235 -4.09583 
3012 1 -41.617 82.8821 -32.7201 
3010 2 -41.0428 82.1227 -32.6209 
183 1 53.5666 90.0857 74.5703 
5508 1 53.601 -9.66143 47.3378 
1174 2 -40.9105 -3.88296 -32.568 
3929 1 -34.9691 -3.46964 -4.49572 
3180 1 53.8053 88.6735 -4.86079 
1176 1 -39.9735 -4.06117 -32.6494 
882 1 51.15 -55.4922 47.6336 
2112 1 54.9399 85.3374 75.69 
3178 2 54.2254 87.9601 -4.38036 
182 1 53.4231 90.8806 75.8507 
181 2 53.2623 90.015 75.4751 
5460 1 -41.3058 -1.43776 76.6874 
3181 2 92.4524 -3.11651 -3.83016 
5506 2 53.3525 -10.3478 46.7186 
3183 1 92.3092 -4.0601 -3.90333 
3930 1 -34.4211 -4.88076 -4.51359 
1150 2 51.2133 44.7048 46.546 
3740 1 8.28379 88.6644 46.7184 
2876 1 104.94 39.9562 45.7748 
3617 1 -32.124 89.5569 43.0228 
503 1 13.197 93.3577 17.0707 
5043 1 -168.768 -53.1903 69.4508 
604 2 58.4303 36.491 44.9473 
6134 4 14.9383 39.2519 15.3244 
515 1 12.1979 91.3291 71.3825 
4379 1 13.8519 178.484 42.0745 
605 1 59.3311 36.6006 44.643 
5041 2 -169.486 -52.6194 69.1781 
1164 1 -34.0519 36.0262 -10.6889 
606 1 58.5144 36.0488 45.7921 
4138 2 -33.82 -1.71472 15.1646 
4321 2 12.9941 -54.5928 17.4335 
2124 1 57.536 87.5636 17.6735 
5042 1 -170.251 -53.1946 69.1447 
3618 1 -32.2478 91.0647 42.9659 
3616 2 -31.915 90.3526 43.5121 
4322 1 12.7667 -55.5138 17.5609 
4323 1 13.5714 -54.5915 16.67 
5468 1 -31.2993 -3.81341 18.0572 
514 2 12.2404 91.9624 72.0989 
5467 2 -31.3601 -3.98638 18.9967 
516 1 11.6172 91.6339 72.747 
2165 1 11.6464 -47.2762 45.9488 
2877 1 105.582 41.1658 46.4207 
5469 1 -32.0799 -3.43128 19.2968 
3692 1 58.6255 -11.4496 -32.6223 
4579 2 -33.5261 -11.3124 23.3287 
486 1 60.034 -9.03677 21.7929 
484 2 60.5879 -8.75624 21.0644 
2875 2 105.079 40.3771 46.6233 
2647 2 57.7403 -6.28672 48.8019 
485 1 60.1231 -8.01169 20.6824 
2649 1 58.4078 -6.41987 48.1288 
5689 2 58.7152 84.9736 22.8471 
3111 1 60.5759 -1.08042 -4.44141 
4753 2 -30.8134 -2.65486 77.6073 
5691 1 58.2966 84.1274 23.0053 
5690 1 59.0543 85.2373 23.7025 
2648 1 57.6108 -7.15372 49.1863 
2970 1 58.6425 -5.67434 50.2457 
3109 2 60.4375 -0.215847 -4.82819 
5146 2 61.1493 130.983 -64.1882 
3160 2 -26.3502 46.2801 46.4019 
2144 1 18.8604 -58.505 16.9978 
2787 1 67.3819 -2.87328 45.2838 
3530 1 22.3695 -10.679 18.6161 
1955 1 21.421 -6.67794 17.0886 
2563 2 16.4164 44.7696 -8.84637 
2785 2 67.983 -2.66128 44.5697 
1956 1 22.7943 -7.07035 17.5905 
511 2 -28.9041 84.5477 46.3849 
1458 1 110.434 -47.222 15.7769 
3162 1 -26.1542 45.841 45.5742 
2091 1 113.854 131.755 43.5104 
2786 1 68.4057 -1.84786 44.8452 
992 1 16.2757 -0.448182 -9.43915 
513 1 -29.2773 84.4738 45.5066 
394 2 -71.7824 -48.7268 -10.3876 
4904 1 61.7424 -3.09567 15.2199 
3529 2 21.4969 -10.6171 19.0046 
1972 2 16.5833 135.252 42.2769 
1974 1 15.9905 134.53 42.4863 
4919 1 16.9723 -7.73406 16.6929 
5392 2 -26.07 36.9503 98.2516 
4920 1 18.0565 -7.55913 15.6509 
396 1 -71.03 -49.2311 -10.6974 
2565 1 16.9974 44.1125 -9.22954 
5394 1 -26.6033 37.7148 98.0338 
908 1 17.5343 136.216 43.6662 
907 2 18.0755 136.727 44.2684 
2564 1 16.0653 44.3507 -8.06059 
1331 1 112.071 -4.97706 45.5515 
971 1 62.1381 35.4022 -36.0982 
1330 2 111.527 -5.51985 44.9814 
3882 1 65.9589 -5.87765 43.015 
395 1 -72.4728 -49.3779 -10.263 
5148 1 61.395 130.357 -64.8693 
1332 1 111.051 -6.0952 45.5806 
3880 2 66.0266 -5.62063 42.0955 
3531 1 20.8984 -10.6621 18.2589 
4918 2 17.8872 -7.94714 16.5094 
909 1 18.7427 136.112 44.5722 
2090 1 113.468 130.563 42.6604 
284 1 67.6643 -3.02968 15.0506 
2089 2 114.172 130.902 43.2138 
5393 1 -25.645 36.7115 97.4278 
1954 2 22.2609 -7.03254 16.7967 
5147 1 60.9764 131.797 -64.6614 
562 2 67.5233 -47.2584 -3.33733 
4296 1 22.1727 35.326 20.4843 
5407 2 64.6446 36.189 -33.7697 
564 1 66.7938 -47.856 -3.50168 
4347 1 -26.2126 44.8709 22.104 
5409 1 63.9386 36.6962 -34.1704 
4754 1 -30.3855 -3.5062 77.516 
4346 1 -27.1412 43.8925 21.4167 
2989 2 -25.5476 175.992 -4.53971 
5372 1 20.621 -3.32823 -6.61621 
512 1 -29.6626 84.6467 46.9604 
2914 2 64.4548 -100.968 -34.3031 
5371 2 21.2902 -3.69119 -7.19644 
3161 1 -26.4014 45.5713 47.0433 
4345 2 -26.4396 44.5201 21.2428 
5408 1 65.4433 36.5294 -34.1729 
5373 1 22.1185 -3.378 -6.83299 
2991 1 -26.0801 176.275 -5.28295 
4107 1 107.179 -9.62018 50.6162 
4105 2 107.99 -9.41419 50.1526 
2916 1 64.8456 -101.331 -33.5086 
1650 1 67.583 37.2413 -6.7603 
1103 1 63.324 -4.91346 49.9096 
4789 2 112.805 39.9339 21.7766 
1649 1 67.6911 38.5079 -5.93819 
3535 2 19.0672 -7.80472 -58.4404 
4106 1 107.722 -8.82215 49.45 
4790 1 112.924 40.835 22.0769 
4791 1 111.9 39.7219 22.0055 
1648 2 67.7001 37.5537 -5.86313 
6064 3 -23.9414 36.8612 -30.6024 
3537 1 18.2688 -8.33218 -58.4151 
3536 1 19.2775 -7.64344 -57.5207 
3267 1 -26.411 42.4069 -57.5288 
1102 2 63.8633 -4.76597 49.1327 
1104 1 63.5724 -5.43103 48.5088 
5248 2 22.5817 -50.9538 23.7999 
2915 1 63.8212 -101.628 -34.5829 
4503 1 -38.567 126.707 105.272 
4715 1 -44.8275 77.2098 -55.8087 
3896 1 10.87 71.9815 51.1727 
3213 1 97.2799 -22.5155 24.0136 
733 2 54.9629 -15.7451 24.2067 
734 1 54.8848 -16.6727 23.984 
3820 2 -40.8079 -15.4653 -28.1844 
3897 1 9.47918 72.5264 51.419 
2988 1 9.80831 -13.0147 -2.39262 
663 1 2.4507 76.2772 -57.1424 
603 1 5.99086 -19.241 -2.47758 
601 2 6.34668 -19.3344 -1.59388 
4855 2 46.7927 73.7062 52.1238 
735 1 55.786 -15.6831 24.6913 
3895 2 9.97447 71.7086 51.3722 
175 2 4.44684 -12.0041 24.2676 
176 1 4.85583 -12.8374 24.0341 
177 1 4.73037 -11.8414 25.1673 
602 1 7.28004 -19.4996 -1.72721 
3822 1 -40.5427 -15.5355 -29.1014 
4857 1 47.2157 74.0237 52.9217 
1787 1 9.55293 -19.1581 51.216 
1786 2 8.94251 -19.4311 51.9009 
1796 1 46.6525 -13.1692 -84.3959 
1795 2 45.8996 -13.4534 -83.8776 
3344 1 92.5384 32.9753 25.9345 
2986 2 9.74641 -12.2418 -2.95391 
4714 2 -45.2032 77.1201 -56.6845 
4856 1 46.0139 73.2435 52.4329 
1788 1 9.46821 -19.4413 52.7007 
4482 1 48.03 80.753 56.4255 
3256 2 10.4773 -107.535 31.8156 
3258 1 10.6956 -107.7 32.7328 
4481 1 47.5467 79.3734 56.8189 
4480 2 47.2468 80.2741 56.6964 
3257 1 10.1035 -106.653 31.8126 
5155 2 -44.7579 26.3709 5.13948 
6121 4 46.7177 77.3098 27.2176 
5156 1 -44.23 25.7105 4.69076 
1688 1 51.6497 -13.2999 -49.1364 
2019 1 -36.8958 -22.7869 28.716 
5760 1 55.246 25.3543 -23.3997 
5485 2 2.75713 72.0158 3.10141 
4508 1 -39.0685 -59.1967 53.8035 
1687 2 52.4156 -12.7317 -49.0544 
3094 2 45.9951 -62.5046 5.0028 
1827 1 2.30806 -16.9838 2.90365 
774 1 55.6404 34.1916 1.74587 
4357 2 -36.4051 -17.2787 29.3381 
862 2 -41.8099 -66.1647 3.73632 
3753 1 11.0456 -63.8894 54.9542 
863 1 -42.2651 -66.8366 3.22878 
864 1 -41.8834 -66.4589 4.64423 
4704 1 11.3009 -20.2636 58.3969 
5758 2 55.1467 26.2763 -23.1625 
4359 1 -36.7477 -17.9741 29.8997 
5759 1 54.2223 26.3661 -22.9305 
413 1 55.6779 25.4074 0.155238 
995 1 3.07383 -65.2631 54.5409 
5867 1 6.58896 79.5735 -24.0273 
775 2 -85.8876 24.3527 -23.5962 
3095 1 46.4337 -62.5324 4.15243 
4358 1 -37.1708 -16.7474 29.1198 
5866 2 6.93259 79.8598 -24.8736 
5487 1 2.45116 71.2922 3.64822 
5868 1 7.73151 80.3409 -24.6578 
776 1 -85.5527 24.2987 -24.4913 
772 2 56.1493 33.5021 1.3194 
1523 1 51.3162 29.1162 -25.0694 
4613 1 6.28661 -15.6874 32.2461 
5658 1 1.24854 -12.5422 31.1101 
5656 2 1.32295 -12.142 31.9765 
5486 1 2.51606 71.762 2.21052 
1826 1 1.30133 -16.598 1.84087 
154 2 -38.7721 -20.6145 4.69284 
155 1 -39.2399 -21.4002 4.40991 
1522 2 51.4365 29.2162 -24.125 
1524 1 50.7279 28.7026 -23.7372 
996 1 1.65495 -64.8024 54.2831 
1849 2 10.9942 27.1741 -0.682132 
412 2 55.5703 25.1488 1.07052 
414 1 56.146 25.7395 1.55613 
4612 2 5.92381 -15.3102 31.4446 
4507 2 -39.6599 -59.9058 54.0557 
2049 1 -36.0301 -69.7121 5.32772 
4614 1 5.91942 -16.0346 30.819 
5428 2 50.1926 72.5385 53.7847 
777 1 -86.6935 24.8635 -23.6718 
4509 1 -39.3465 -60.1853 54.9158 
1825 2 1.44036 -16.5966 2.78792 
3343 2 93.073 32.8357 26.7161 
5430 1 50.3764 73.4643 53.6257 
5429 1 50.9706 72.0811 53.4656 
3188 1 2.024 26.4262 -26.4491 
3187 2 1.84156 25.5101 -26.6581 
5762 1 94.1082 34.043 27.4011 
3189 1 2.64597 25.1928 -27.0686 
4011 1 54.3342 31.4087 -0.631777 
773 1 55.4953 32.956 0.883211 
4010 1 53.3931 31.6762 0.523488 
2047 2 -36.1475 -70.2861 4.57076 
1645 2 56.4747 -17.1986 32.0649 
5763 1 95.5295 34.4922 27.6657 
6073 3 0.0320684 34.4642 -26.2738 
5610 1 0.40894 27.4546 30.8059 
5761 2 94.6199 34.6857 27.8924 
2017 2 -37.4807 -23.2769 29.2938 
156 1 -39.3885 -20.1626 5.26916 
3821 1 -40.4982 -14.6019 -27.9105 
1224 1 46.0309 -21.8069 -0.308064 
994 2 2.18707 -65.5907 54.3908 
2018 1 -37.1043 -23.1656 30.1668 
5609 1 0.325926 28.821 30.1593 
3345 1 92.9772 31.9031 26.909 
2912 1 96.8541 75.4546 26.6638 
1833 1 1.03821 74.8252 59.6443 
4009 2 54.3032 31.7852 0.247686 
3210 1 8.8987 -11.734 3.40638 
1647 1 55.7652 -17.7715 32.356 
2913 1 96.0248 76.7208 26.6941 
2911 2 96.1708 75.9001 27.1647 
3096 1 46.3134 -63.2816 5.46243 
1689 1 53.0149 -13.2172 -48.4874 
1831 2 1.11896 75.7335 59.9351 
3422 1 54.3192 74.2785 -21.4017 
4924 2 13.7544 -19.0439 -1.79178 
4925 1 13.1683 -19.0243 -2.54834 
5332 2 103.059 -15.5868 25.2517 
4926 1 14.602 -19.3051 -2.15157 
2838 1 13.014 -22.8187 24.4175 
5333 1 103.119 -15.9904 26.1176 
2837 1 12.4531 -23.2693 25.7496 
2836 2 12.7401 -22.4899 25.2737 
1850 1 11.6381 27.0395 -1.37745 
5334 1 103.284 -14.6682 25.3989 
6011 3 12.091 -15.5525 30.8501 
5779 2 -32.3774 33.0941 2.43329 
614 1 149.603 74.3022 29.3941 
2795 1 59.9532 30.3972 -26.425 
2794 2 60.5254 29.6847 -26.7101 
5780 1 -32.9518 33.4757 1.7695 
291 1 103.709 35.0192 -0.512955 
615 1 150.585 74.0486 28.2694 
5781 1 -31.6779 33.738 2.54421 
1851 1 11.5103 27.1865 0.12387 
4702 2 12.2437 -20.1048 58.3504 
4703 1 12.6286 -20.7788 58.9105 
3673 2 59.9963 -15.3255 -48.9474 
3969 1 60.0871 29.6367 30.5277 
3967 2 59.1578 29.4078 30.5116 
3752 1 12.4272 -64.4959 54.8303 
4430 1 57.9318 70.8497 -22.1134 
2933 1 14.3313 -21.718 26.4184 
3968 1 59.1462 28.4507 30.5188 
3751 2 11.9581 -63.6634 54.7738 
613 2 149.666 74.2545 28.4401 
290 1 103.184 33.8396 0.27794 
2796 1 60.0849 29.3148 -27.4752 
1646 1 57.2266 -17.7817 31.9606 
3315 1 14.8682 -23.3628 0.86183 
3970 2 -30.5938 -13.5782 -0.737853 
1574 1 -30.9897 -21.6497 86.4542 
1035 1 -78.5058 -11.8245 -22.781 
2932 2 15.0756 -21.9993 26.9506 
3674 1 60.7466 -15.7159 -49.3955 
289 2 103.706 34.0623 -0.492951 
3972 1 -31.4835 -13.2257 -0.761341 
4081 2 -26.6797 27.4645 25.1801 
4083 1 -27.124 26.718 25.5821 
4231 2 -26.2088 -23.0951 132.603 
5798 1 22.433 -106.611 26.0027 
4082 1 -27.1822 27.6433 24.3853 
4952 1 -30.1992 -23.4219 -1.73044 
2777 1 18.1337 31.2968 26.0512 
4233 1 -26.8825 -22.6602 133.126 
2009 1 22.2267 -16.9534 24.2505 
3434 1 62.2795 31.3336 78.7414 
5799 1 22.647 -105.933 24.6659 
4436 1 67.6497 -109.13 25.7944 
5797 2 22.1865 -105.835 25.4993 
2150 1 66.4664 27.3605 -1.11062 
4437 1 66.2249 -109.639 25.736 
2778 1 19.0239 32.5139 25.9176 
4435 2 67.1173 -109.855 25.4657 
2776 2 19.0491 31.5733 26.0931 
1462 2 17.6643 -21.8731 52.9773 
5073 1 63.9616 -12.525 52.2456 
5071 2 63.7577 -12.886 53.1084 
1464 1 16.7199 -21.7493 52.882 
1249 2 61.7643 -63.5273 57.8221 
2015 1 68.2783 -13.3584 31.6848 
2295 1 110.489 124.849 55.8674 
1357 2 -73.0645 26.2463 2.32386 
1250 1 62.6609 -63.6149 58.1457 
1173 1 21.196 78.9711 -51.3988 
2014 2 67.3343 -13.2017 31.6602 
2673 1 -29.4806 -14.2002 82.0479 
1171 2 20.3878 78.8791 -51.9032 
1557 1 60.9439 27.9651 0.724846 
1172 1 20.5539 79.3617 -52.7129 
699 1 110.349 78.0906 -23.4953 
1251 1 61.8576 -63.1062 56.9676 
5413 2 112.378 71.7125 27.1667 
1506 1 66.3975 -59.2611 53.906 
1504 2 65.9891 -59.7291 54.6342 
1505 1 65.075 -59.8334 54.3701 
2727 1 -70.7715 27.586 58.7391 
2672 1 -28.1804 -14.7212 82.6224 
5672 1 68.1549 -67.2363 56.5589 
789 1 20.9564 28.5089 56.9224 
5673 1 67.235 -68.4223 56.3618 
5671 2 67.9846 -68.1231 56.8764 
4303 2 -26.8878 117.662 -25.5937 
697 2 110.141 77.6248 -22.6854 
4305 1 -26.045 117.89 -25.9861 
2671 2 -28.9843 -14.2612 82.8641 
787 2 20.0392 28.235 56.9197 
698 1 110.423 76.7244 -22.8473 
788 1 19.5843 28.9247 56.4364 
5415 1 112.536 72.5807 26.7956 
1359 1 -73.4689 26.2144 3.19085 
1358 1 -72.4273 26.9582 2.38234 
1463 1 17.7602 -22.3733 53.7877 
3000 1 109.12 80.6943 2.45137 
1093 2 61.1896 34.1082 31.5375 
1095 1 61.5028 33.9069 30.6557 
2294 1 110.242 123.908 54.7076 
5916 1 -74.5715 -20.6177 32.0379 
2293 2 110.013 124.055 55.6252 
1556 1 62.0583 27.2966 1.50146 
531 1 -29.6161 30.6062 -0.254843 
1573 2 -30.1577 -21.8399 86.0207 
4304 1 -27.262 118.501 -25.3243 
2998 2 109.679 81.3664 2.84095 
2725 2 -70.8116 27.16 59.5953 
5914 2 -73.6868 -20.3204 32.2504 
529 2 -29.1369 31.2905 -0.722196 
5414 1 112.304 71.1364 26.4059 
5072 1 62.9487 -12.4451 53.3679 
5683 2 67.9415 24.0135 4.99764 
2006 1 110.099 78.723 32.6664 
3971 1 -30.0324 -12.8073 -0.655218 
2016 1 67.0406 -13.3648 32.5565 
5684 1 68.1625 24.6695 5.65874 
530 1 -29.7543 32.0198 -0.778728 
2726 1 -71.7229 26.8799 59.6815 
1555 2 61.1767 27.1452 1.16054 
5685 1 67.93 24.4987 4.17258 
5773 2 -68.8292 -64.5065 59.4611 
2151 1 67.8655 27.7939 -0.727679 
5775 1 -68.9725 -63.7485 60.0278 
1575 1 -30.2592 -22.7313 85.6871 
2934 1 15.2936 -21.2336 27.482 
3156 1 15.2907 -105.551 -52.8625 
1094 1 60.9892 33.2547 31.9217 
5774 1 -69.339 -65.2084 59.8655 
2149 2 67.3018 27.0226 -0.78764 
1800 1 -44.4514 -2.92937 25.7893 
4330 2 56.1022 44.9952 -29.7778 
1798 2 -43.4963 -2.88344 25.7455 
445 2 53.3096 91.6124 53.1729 
447 1 52.5573 92.1711 52.9776 
802 2 97.7477 -4.32655 -29.354 
1625 1 141.994 131.622 24.8099 
2987 1 9.32597 -11.5797 -2.40516 
4288 2 49.4783 -5.13521 51.723 
4881 1 7.20696 39.0942 -55.724 
657 1 49.4651 44.1957 -29.6582 
391 2 5.78958 93.5165 25.5116 
4332 1 55.3026 45.521 -29.7597 
804 1 98.2602 -3.64173 -28.9243 
4880 1 7.27836 38.3554 -57.0434 
5024 1 6.77727 36.5615 -28.0169 
656 1 50.4603 45.3327 -29.5651 
2694 1 94.6311 132.398 53.0966 
655 2 50.1012 44.6892 -30.1759 
4289 1 50.4254 -5.025 51.6393 
803 1 98.3864 -4.81266 -29.8756 
1626 1 141.035 130.527 24.3963 
4331 1 56.7818 45.58 -29.4426 
1624 2 141.137 131.248 25.0164 
2133 1 1.9703 -5.73189 51.2181 
4290 1 49.367 -5.66265 52.514 
4879 2 6.74881 38.4391 -56.2505 
3182 1 93.1001 -3.02555 -3.13125 
1799 1 -43.2455 -2.36806 26.5121 
4655 1 47.9055 -0.80054 30.8255 
5657 1 1.94028 -11.4206 31.8553 
4901 1 45.8875 -1.99257 85.493 
4756 2 10.9063 93.4288 3.3776 
2871 1 51.8266 93.4377 1.23262 
1048 2 -45.5005 137.087 -52.6618 
4900 2 46.0124 -1.35202 84.7928 
5264 1 -45.4886 39.3371 2.57753 
5025 1 8.20848 36.5307 -27.5244 
5123 1 46.1405 46.4942 0.863318 
1903 2 6.6965 -6.09305 -21.921 
4654 2 48.6688 -0.233938 30.7139 
3208 2 8.96993 -11.6559 2.45504 
2348 1 7.11095 40.5922 26.6763 
1049 1 -45.2733 137.871 -52.1613 
1904 1 5.80838 -6.276 -21.6144 
2632 2 0.472047 40.5391 53.7738 
966 1 5.70869 -2.83417 5.26604 
2634 1 0.0539631 40.2681 54.5911 
2692 2 94.5131 133.171 53.649 
3923 1 3.34509 45.427 28.3209 
4136 1 100.088 38.6509 26.7189 
5056 2 96.7847 85.3067 31.0786 
4706 1 94.5092 -4.22204 27.0616 
4707 1 95.5054 -3.73679 28.0931 
1050 1 -45.067 136.372 -52.197 
5023 2 7.52102 35.9728 -27.8883 
4705 2 95.1635 -4.53333 27.6871 
2359 2 6.61216 -3.82234 3.01258 
964 2 4.79313 -2.55493 5.26741 
2378 1 55.1195 91.5612 29.2746 
2347 2 7.95437 40.3509 26.2934 
4596 1 93.6125 -57.3736 82.2615 
5663 1 8.55086 43.3333 -0.721865 
441 1 5.11162 88.2137 0.881627 
5662 2 9.1695 42.7055 -0.348598 
4958 1 -42.5738 85.9014 29.3841 
1685 1 -35.8177 46.2395 81.5834 
446 1 53.7921 92.0874 53.8495 
1344 1 94.2509 -5.14951 -52.3019 
4678 2 -42.8734 36.6524 4.01744 
1343 1 93.9022 -6.269 -51.3443 
4679 1 -43.2492 37.3664 3.50247 
2379 1 56.1645 90.4848 29.478 
2253 1 1.98958 39.5089 31.5438 
4135 2 100.525 37.8644 27.0459 
4397 1 2.46795 42.2375 31.8155 
3922 2 2.77348 45.7932 27.6461 
439 2 5.75888 87.5204 1.01026 
965 1 4.29355 -3.37048 5.30643 
4137 1 101.449 38.1086 27.1014 
2377 2 55.2684 90.6214 29.1703 
6060 3 8.52965 89.1592 4.15931 
4959 1 -41.1852 85.3789 29.6854 
4757 1 10.9056 92.7875 4.08819 
2251 2 2.18432 39.7417 32.4516 
5214 1 101.977 90.2064 32.4169 
2360 1 6.53641 -2.91605 2.71401 
1470 1 53.1447 87.2356 29.1991 
390 1 55.0627 -57.3559 4.45303 
2252 1 3.10758 39.5157 32.5645 
3209 1 9.00486 -10.713 2.29361 
3368 1 -41.6998 -1.79071 30.1768 
4594 2 92.7055 -57.0794 82.3458 
1342 2 93.9133 -5.315 -51.4216 
4595 1 92.7733 -56.1878 82.6875 
4396 2 2.94853 42.3183 32.6394 
2693 1 94.6885 132.86 54.5372 
2361 1 5.71344 -4.0857 3.21053 
5172 1 10.3486 38.1514 84.5198 
1684 2 -36.708 46.4525 81.8632 
4680 1 -42.0843 37.0279 4.40816 
2870 1 53.146 92.8422 1.67577 
2869 2 52.1997 92.7565 1.79205 
4957 2 -41.7254 85.7277 28.9763 
6118 4 1.66187 -8.08698 2.99813 
440 1 5.25303 86.7783 1.34136 
1469 1 54.5287 87.3049 28.5895 
5897 1 46.2324 -9.26969 57.8548 
3369 1 -40.7292 -1.85408 29.0168 
5664 1 9.22077 42.9409 0.57779 
5170 2 9.46069 37.7941 84.5115 
5057 1 97.2988 86.1141 31.0874 
388 2 55.2712 -58.0565 5.07101 
2349 1 8.49901 41.1305 26.4016 
1468 2 54.0731 87.1557 29.418 
5171 1 8.89206 38.564 84.5112 
3367 2 -41.4815 -2.30523 29.3998 
5898 1 46.1476 -10.5991 58.5742 
5058 1 97.2165 84.7404 31.7182 
6137 4 11.1085 45.1759 5.5904 
5212 2 101.591 89.4221 32.8075 
822 1 52.4447 35.9245 59.6067 
2633 1 1.33624 40.1283 53.7986 
3924 1 2.81917 46.7398 27.7808 
1447 2 7.46151 44.0553 5.68977 
820 2 52.315 36.8108 59.9441 
1905 1 7.26474 -6.50237 -21.2685 
2746 2 60.6619 35.687 24.38 
6009 3 57.17 42.7274 25.4059 
2969 1 59.7715 -5.72307 51.2531 
4755 1 -30.9617 -2.56045 78.5482 
2968 2 58.8966 -5.36067 51.1136 
4581 1 -32.8525 -11.5088 23.9797 
3619 2 -30.9509 39.0512 52.0534 
3620 1 -31.2482 38.8887 52.9486 
3058 2 15.1381 -2.34217 26.3036 
5153 1 103.169 139.214 53.9115 
3155 1 14.8401 -104.397 -51.9927 
5197 2 58.4503 46.7946 1.65227 
618 1 -30.627 37.2419 85.56 
401 1 -30.8279 -0.786823 59.7625 
1033 2 -78.8984 -11.7009 -21.9168 
3816 1 60.4946 -56.9132 -0.102875 
3815 1 60.3274 -56.0357 1.11939 
3060 1 14.7848 -2.55168 27.1681 
3459 1 57.8299 91.0263 4.074 
874 2 60.5734 -49.297 31.8425 
875 1 60.236 -49.3148 30.9469 
3814 2 60.0511 -56.1236 0.207171 
6148 4 14.1537 -2.29212 29.0078 
5154 1 104.073 138.287 54.6959 
3598 2 104.164 -5.76783 3.80792 
3600 1 103.989 -5.79141 4.74882 
3457 2 57.8187 90.5368 3.25146 
5198 1 59.0444 46.0441 1.64239 
5641 2 12.5446 85.5032 -24.1336 
6100 4 15.2266 -9.12962 2.73349 
3154 2 14.8016 -105.351 -52.0645 
1034 1 -79.7435 -11.2879 -22.094 
3458 1 58.5887 90.8487 2.77611 
617 1 -30.6744 35.8143 86.0616 
3494 1 -32.7086 -6.14679 0.117935 
5642 1 12.6563 86.3876 -23.7848 
3493 2 -33.61 -5.83318 0.0443471 
5643 1 13.429 85.1373 -24.1477 
2103 1 58.273 -102.4 0.163612 
2101 2 57.3834 -102.214 0.463896 
5152 2 103.451 138.301 53.9685 
2102 1 57.4517 -102.193 1.41843 
3495 1 -34.139 -6.52973 0.433245 
3599 1 104.058 -4.84737 3.56732 
57 1 -30.6377 86.1619 1.90829 
616 2 -30.8268 36.7185 86.3361 
55 2 -30.4802 86.9191 1.3443 
5199 1 57.7603 46.5464 2.26743 
104 1 108.774 -8.52562 -2.08454 
563 1 68.0025 -47.6586 -2.61179 
559 2 62.4432 -5.19676 -2.92813 
2748 1 61.0798 35.4702 25.2134 
2580 1 153.693 43.9136 80.1857 
3621 1 -30.0151 39.2325 52.1404 
259 2 -23.4244 -6.44927 -55.8155 
6136 4 64.3068 -0.855944 -1.10907 
561 1 62.5549 -4.45093 -2.33865 
1203 1 -73.1367 93.6011 -56.8466 
538 2 63.8404 83.3458 24.8419 
540 1 63.2366 83.4005 24.1012 
105 1 109.516 -7.2923 -1.61597 
260 1 -24.347 -6.41167 -55.5634 
2579 1 155.102 44.4181 79.954 
539 1 63.2946 83.0644 25.5762 
5252 1 -25.8436 37.3103 25.4506 
3266 1 -25.7197 41.4374 -56.5939 
2578 2 154.55 43.6414 79.8581 
3265 2 -25.718 42.3537 -56.8706 
560 1 62.5731 -5.96437 -2.37125 
2333 1 19.9787 44.0419 24.2972 
5251 2 -25.0276 37.8084 25.4032 
2332 2 19.9567 44.9611 24.0307 
103 2 108.635 -7.63729 -1.75637 
5253 1 -25.2669 38.6891 25.6918 
5249 1 21.6739 -50.9541 24.1033 
6088 4 19.6756 40.1492 25.4862 
2334 1 19.5184 45.41 24.7535 
261 1 -22.9638 -5.99762 -55.1083 
3750 1 -28.4859 -0.0533751 -1.02227 
5011 2 -24.5212 -0.559299 -27.074 
4965 1 -22.9791 -57.5723 -27.4367 
3249 1 -116.971 -0.648616 32.3336 
5061 1 15.42 45.5889 2.0938 
5891 1 18.6185 87.776 -27.3855 
4668 1 16.6754 -9.4716 1.96774 
3444 1 64.5758 37.6552 29.1679 
5288 1 -29.9876 -51.9949 83.1612 
876 1 61.5239 -49.2505 31.7399 
4168 2 -22.9891 45.3976 -21.732 
5075 1 -29.652 -5.37978 30.9108 
1553 1 65.303 -7.35782 5.80576 
56 1 -29.7201 86.672 0.817506 
3442 2 65.5256 37.5475 29.2188 
12 1 21.7419 42.5943 1.45495 
5013 1 -25.3849 -0.627217 -27.4811 
4825 2 62.9732 -1.35978 4.99303 
4170 1 -23.1408 46.0514 -22.4144 
1140 1 -26.0382 44.1032 -21.5339 
1552 2 65.1832 -8.2984 5.67462 
3760 2 66.6939 -49.4658 2.2489 
3443 1 65.8764 38.2486 28.6697 
3464 1 65.8863 -54.1935 54.0262 
5059 2 16.0968 46.265 2.12605 
6087 4 64.1282 -3.93659 58.9434 
5892 1 18.1672 89.1638 -27.7884 
5012 1 -23.9292 -0.983674 -27.6949 
4667 1 16.9123 -10.2607 0.697624 
2999 1 109.196 82.1831 2.71491 
5076 1 -28.504 -4.8767 31.76 
3465 1 66.7969 -53.4032 54.9417 
1540 2 -28.4986 38.6588 4.42194 
10 2 21.9746 41.7842 1.00124 
1605 1 19.8685 40.4718 31.3787 
1542 1 -29.2078 38.2382 3.93581 
2082 1 -72.9983 -54.0701 30.0567 
2650 2 22.3788 39.0997 2.74222 
2965 2 -22.9375 -105.071 83.6234 
2761 2 21.3935 130.455 31.8294 
6075 3 20.6289 35.2373 -24.0659 
1604 1 19.6248 41.8847 31.8648 
2762 1 21.5009 129.82 32.5379 
1541 1 -28.8694 39.491 4.71543 
3762 1 67.3079 -49.0976 2.88428 
2763 1 20.8033 131.117 32.1882 
5890 2 18.3604 88.6232 -27.0224 
6057 3 -27.1343 -4.07349 56.3165 
1603 2 20.1538 41.1057 32.0368 
6105 4 16.2331 -11.3006 26.7 
3761 1 66.7555 -48.8845 1.49094 
5060 1 16.8898 45.8256 1.81902 
2081 1 -71.9891 -53.6989 28.9911 
5287 2 -29.6615 -51.1396 83.441 
5272 2 18.4529 -95.4853 28.4143 
5274 1 18.5058 -95.3062 27.4755 
5273 1 19.3649 -95.5352 28.7008 
11 1 22.7499 42.011 0.487647 
4666 2 17.3694 -9.86977 1.44227 
4826 1 63.4704 -2.16342 4.84071 
3463 2 66.3241 -54.2329 54.8765 
2652 1 21.7562 38.3729 2.75887 
1554 1 64.3201 -8.37601 5.26812 
5074 2 -29.2594 -5.46425 31.7797 
2651 1 21.9916 39.7337 2.13863 
2080 2 -72.5963 -53.3165 29.6246 
5289 1 -30.4188 -50.5586 83.3683 
4169 1 -23.8652 45.1598 -21.4285 
3059 1 15.4708 -1.44886 26.3903 
1533 1 112.918 41.2908 32.785 
2530 2 25.2753 55.4407 -42.4685 
2118 1 71.8292 103.345 -19.3335 
4946 1 23.2923 -41.824 -17.4884 
2116 2 71.9138 102.606 -19.9363 
4945 2 23.6133 -41.4143 -16.685 
4947 1 23.7514 -40.4972 -16.9219 
2117 1 71.814 102.993 -20.806 
5571 1 72.0486 94.0784 33.8957 
2731 2 119.91 7.68132 62.1163 
4479 1 71.6552 52.1296 10.9905 
2733 1 119.129 8.00213 61.6649 
2841 1 -18.0897 1.66669 62.1595 
542 1 25.5355 -42.2993 88.5517 
541 2 25.4889 -43.2524 88.4753 
2839 2 -17.8692 2.58269 62.3285 
2532 1 24.3935 55.4774 -42.8391 
4777 2 -22.7324 55.0737 64.8321 
3105 1 22.9237 54.8661 61.4721 
2531 1 25.3038 56.1661 -41.8445 
2543 1 29.8591 51.402 37.1272 
2960 1 24.0511 50.248 35.3406 
2542 2 30.2294 50.6068 37.5103 
2959 2 23.1533 50.3925 35.6394 
2961 1 22.979 49.665 36.2366 
4720 2 25.388 -40.621 -20.1499 
2732 1 120.62 8.23118 61.7865 
435 1 -17.9975 -35.2698 10.2884 
434 1 -16.8661 -36.2601 10.1123 
4478 1 71.7117 53.6308 11.1785 
4477 2 72.2684 52.8554 11.1063 
2840 1 -18.6762 3.06224 62.1418 
4354 2 -62.5239 -84.8737 -16.4423 
3704 1 24.5418 94.8508 33.0545 
5220 1 28.0811 5.80814 10.4269 
3445 2 25.2859 10.2963 9.37062 
3446 1 25.4796 9.85828 10.1994 
5219 1 28.6709 6.42183 9.17492 
3703 2 24.9308 94.0551 33.4173 
5218 2 28.8246 5.73915 9.82801 
4355 1 -62.9677 -85.4063 -17.1023 
4794 1 74.3678 2.43129 11.1669 
2612 1 22.9707 3.95346 11.7717 
4722 1 25.6914 -39.7482 -19.9001 
4793 1 73.3251 2.57703 10.0791 
4721 1 24.5163 -40.4759 -20.5177 
433 2 -17.0506 -35.322 10.1582 
543 1 24.8717 -43.4059 87.76 
5542 2 121.636 -46.3622 64.1117 
4792 2 73.4239 2.50894 11.0288 
4565 1 29.3701 -44.0696 7.03292 
5098 2 69.3934 94.0307 37.4874 
5569 2 72.9818 94.054 34.1071 
5100 1 70.2919 94.31 37.3113 
3103 2 22.9865 54.1397 60.8519 
4356 1 -61.8015 -85.4225 -16.137 
3447 1 24.3337 10.393 9.36705 
1770 1 68.7857 -82.2343 -17.9949 
250 2 -15.2756 55.6543 -20.9117 
4564 2 30.2461 -44.2558 6.69481 
5543 1 121.731 -45.4455 64.3707 
5592 1 -16.9723 56.4962 39.4224 
1698 1 26.8072 -44.1586 12.6019 
2583 1 22.8459 141.3 12.5987 
364 2 -19.0761 8.98596 -39.7481 
6109 4 25.2403 10.7546 40.1162 
5591 1 -17.7076 56.5097 40.7457 
366 1 -19.8067 8.37874 -39.6311 
810 1 26.7273 53.1024 68.601 
365 1 -19.4107 9.65086 -40.35 
3998 1 116.723 2.98235 14.7565 
524 1 -22.7878 6.28584 40.3967 
1696 2 26.2488 -44.2956 13.3672 
1697 1 26.5612 -45.1161 13.7485 
808 2 27.5693 53.0354 68.1506 
585 1 75.112 58.5955 40.6688 
809 1 27.3395 52.9071 67.2303 
5918 1 30.3207 56.0135 95.0226 
3322 2 73.4005 0.478344 -39.8588 
5590 2 -16.9733 56.914 40.2837 
1622 1 26.2371 11.6462 68.3557 
3323 1 74.3506 0.366524 -39.8915 
152 1 -22.434 104.107 12.7702 
4164 1 -12.4361 7.72401 35.9794 
4163 1 -11.7229 9.03522 36.2324 
4162 2 -11.5627 8.10937 36.0498 
4157 1 -14.0948 1.14073 60.4834 
5766 1 77.813 10.1717 -17.9939 
1482 1 31.2761 -86.2661 62.4741 
3813 1 -11.8066 11.2025 -20.4382 
453 1 -11.6495 6.61771 12.2019 
4189 2 -14.6232 52.2339 39.4911 
4369 2 33.1916 96.8478 39.4767 
4158 1 -13.1811 0.630166 61.5773 
6150 4 124.881 -45.9623 35.6916 
4246 2 33.6503 -35.8829 9.25392 
2947 2 31.2952 7.84601 11.0524 
451 2 -11.6231 5.8426 11.6409 
783 1 78.3311 -44.6766 35.6798 
4566 1 30.8353 -44.0165 7.41016 
2544 1 30.5925 50.1281 36.7651 
5765 1 76.4268 10.3337 -18.5805 
5764 2 76.9123 9.85993 -17.9053 
251 1 -14.7734 56.4389 -21.1318 
1812 1 -11.7535 99.1128 9.7857 
2949 1 31.167 8.57271 10.4427 
3576 1 77.9817 99.9344 33.8854 
781 2 77.849 -43.8513 35.7308 
1898 1 -11.6867 94.863 64.3437 
782 1 78.3698 -43.2368 35.2136 
1480 2 31.7288 -87.097 62.6186 
2948 1 31.7823 8.22828 11.7824 
5544 1 122.53 -46.655 63.9341 
1899 1 -11.6322 95.4524 65.7371 
1481 1 31.2382 -87.518 63.3244 
3122 1 31.8978 105.418 88.0766 
3811 2 -12.459 10.9413 -21.0882 
5178 1 32.6696 -82.2126 39.6137 
452 1 -11.4885 5.11303 12.2457 
4156 2 -13.533 0.401735 60.7169 
3574 2 78.4033 99.7673 33.0424 
4370 1 32.7197 97.2491 38.7469 
4190 1 -14.8934 51.6804 38.7584 
4191 1 -14.5777 53.1157 39.1216 
998 1 31.1279 97.1113 68.8764 
997 2 30.9545 96.8238 67.9801 
999 1 30.8437 97.6354 67.4849 
4371 1 32.532 96.7485 40.1633 
2938 2 -12.7686 -36.8373 41.8716 
2940 1 -12.8602 -35.8903 41.7668 
5919 1 31.7083 55.8003 95.5891 
1042 2 30.4783 0.506819 67.8446 
5917 2 30.9113 55.3313 95.342 
1043 1 30.7759 1.40784 67.9702 
1044 1 31.0652 0.150988 67.1773 
5270 1 33.7768 56.2039 13.5161 
5269 2 34.0542 55.3666 13.1445 
6098 4 41.6798 56.8125 64.9496 
725 1 86.744 56.9148 -45.1492 
3075 1 -3.80049 55.2946 63.8404 
3073 2 -3.66271 54.5517 63.2528 
724 2 86.2726 57.0087 -45.977 
2697 1 38.8603 144.049 63.6392 
2221 2 83.3881 5.62943 60.4916 
4940 1 -2.64135 49.9828 33.8748 
1144 2 -96.1941 51.809 9.57936 
2222 1 82.7838 5.34242 61.1762 
1145 1 -96.7901 52.0952 10.2715 
4838 1 -48.017 10.3635 37.8006 
4837 2 -47.082 10.5472 37.892 
3230 1 -2.12282 49.0376 -18.4595 
4090 2 -1.42277 -43.7894 -17.1166 
1146 1 -96.4721 52.2991 8.80551 
5967 1 -2.4507 7.62134 34.548 
2695 2 37.9855 143.788 63.351 
4839 1 -46.9816 11.4449 37.5753 
3838 2 -5.78885 6.83008 -19.5956 
3231 1 -2.03421 47.8247 -19.3611 
5965 2 -2.06356 7.35743 33.7133 
4092 1 -0.583647 -43.6109 -17.5411 
3198 1 -147.922 50.6631 8.00986 
4329 1 80.9944 -38.3242 38.1805 
3196 2 -147.661 49.898 7.49751 
4327 2 81.5303 -37.6275 37.8017 
726 1 86.4147 56.1774 -46.4297 
3074 1 -4.50383 54.4361 62.8108 
1901 1 -51.0711 95.764 -70.0175 
5935 2 45.1621 47.4731 -20.2953 
3229 2 -2.65901 48.4465 -18.988 
5437 2 -8.75472 1.33059 6.99187 
5438 1 -9.53608 1.87067 7.11028 
4616 1 36.3015 5.93005 -45.4787 
3572 1 40.3616 -46.7034 34.0002 
4094 1 37.2463 8.33289 37.2215 
3197 1 -148.291 49.2196 7.7409 
2696 1 37.5342 144.614 63.1764 
4095 1 38.6995 8.3958 37.6411 
4617 1 37.5183 6.31587 -44.6649 
4093 2 38.0772 7.86385 37.1452 
5439 1 -8.08053 1.76633 7.51324 
2864 1 -50.8778 9.14381 38.6107 
1902 1 -52.4301 95.106 -69.9075 
4328 1 81.5095 -36.9272 38.4539 
1874 1 42.4347 -85.2066 11.5653 
4091 1 -1.18736 -44.1589 -16.2655 
3840 1 -6.70944 6.68935 -19.8169 
3573 1 41.5077 -45.808 34.4204 
1132 2 39.0252 6.08528 -15.0381 
6040 3 42.9543 5.47495 37.7324 
2863 2 -51.6745 8.80016 39.0149 
1601 1 43.6974 56.3127 60.5689 
1811 1 -11.3226 99.9158 8.57678 
1810 2 -11.396 99.0188 8.90277 
5522 1 -96.5097 105.359 61.0573 
5966 1 -1.43697 6.67206 33.9454 
5756 1 91.0804 5.10937 8.3208 
2661 1 37.7016 -37.0315 -44.8496 
2659 2 37.9812 -36.249 -45.3248 
1900 2 -51.8718 95.7638 -69.493 
4615 2 37.1017 5.56994 -45.0965 
3474 1 36.3941 58.0241 62.3334 
1600 2 43.8395 57.2498 60.7027 
5755 2 90.4871 5.80914 8.59382 
3711 1 41.9582 142.372 9.51631 
3571 2 40.8258 -45.9029 33.7555 
3709 2 41.4668 141.905 10.1918 
5031 1 -0.482708 -46.4196 -43.5378 
2160 1 -53.8112 95.4776 37.2857 
2660 1 38.8829 -36.4362 -45.5859 
3710 1 42.1387 141.515 10.751 
3839 1 -5.30567 6.4738 -20.3412 
570 1 41.9639 10.6023 66.6244 
2159 1 -54.598 94.3709 37.9553 
6143 4 -0.300086 2.65558 12.5118 
2223 1 84.067 4.9549 60.4726 
1242 1 38.0377 0.0785658 87.5057 
4939 2 -2.37828 50.2958 33.0093 
3919 2 90.3363 -41.8259 -14.846 
737 1 39.5624 2.53709 -20.6259 
1897 2 -11.3757 94.6817 65.2307 
1873 2 42.7715 -85.9844 12.01 
933 1 41.0857 -35.543 10.5831 
3472 2 35.7657 58.3972 61.7152 
740 1 -5.42344 4.34394 5.89774 
3921 1 90.6236 -42.7343 -14.7533 
736 2 39.0527 3.25369 -21.004 
4248 1 34.4443 -35.749 8.73641 
1602 1 44.7202 57.3085 61.0729 
2158 2 -53.7252 94.5876 37.6274 
626 1 45.1853 -84.1953 11.8601 
5757 1 90.9632 6.27196 9.28335 
1133 1 39.1857 6.94178 -15.4342 
5937 1 45.4748 48.2581 -20.7452 
2163 1 38.2089 4.19882 12.8741 
2161 2 38.0962 3.38092 13.3584 
5312 1 -3.6466 6.1477 14.0065 
5311 2 -3.64347 6.76851 14.7351 
2086 2 85.2738 104.328 68.5423 
2088 1 86.2292 104.269 68.5475 
2908 2 90.3245 57.047 69.0503 
2909 1 91.086 56.6774 68.6033 
2087 1 85.0925 105.263 68.4424 
3920 1 90.1269 -41.5483 -13.9542 
3872 1 39.2445 3.03292 68.8037 
4846 2 -9.98122 2.06107 95.5533 
1266 1 37.7374 6.69793 -12.338 
3665 1 35.8442 11.0329 -40.128 
1264 2 37.2436 6.54139 -13.1429 
1875 1 42.4175 -85.9257 12.8974 
569 1 42.8578 10.2347 67.7896 
179 1 -1.77674 2.3361 -13.8926 
3666 1 36.0207 9.76827 -40.9413 
3664 2 35.9501 10.7191 -41.026 
4847 1 -10.6933 2.23134 94.9367 
178 2 -2.56339 2.05293 -13.4265 
1265 1 36.355 6.83373 -12.9401 
4848 1 -9.36104 2.77533 95.4069 
568 2 42.1439 10.8209 67.5388 
2865 1 -51.8573 9.40307 39.7355 
5271 1 34.4734 54.908 13.8726 
2595 1 -3.97989 -90.0113 -13.8115 
180 1 -2.67857 1.13818 -13.6838 
2593 2 -4.16839 -89.1109 -14.0757 
2162 1 38.5091 2.7165 12.8068 
42 1 -55.0772 94.1158 14.2482 
2594 1 -5.12254 -89.0753 -14.1432 
1134 1 38.3516 6.24852 -14.378 
483 1 25.301 116.723 -19.1889 
4003 2 23.705 16.9117 12.5883 
4165 2 -19.2518 106.29 11.0577 
4166 1 -19.6271 105.689 11.7014 
4167 1 -19.9412 106.935 10.9012 
2467 2 -19.1744 12.3738 -19.1073 
2459 1 26.8658 64.933 39.096 
5822 1 74.0115 -73.561 -20.633 
3905 1 -18.3525 58.7291 -48.0443 
330 1 23.3714 17.2895 35.4496 
5838 1 -21.3572 20.9881 7.30068 
4632 1 69.7567 115.995 66.1852 
4822 2 69.3537 20.525 9.03083 
6041 3 -15.6225 13.1996 -15.7561 
329 1 23.306 17.9736 34.1007 
1778 1 -16.9037 -29.2031 11.758 
4314 1 73.2317 14.0394 37.8323 
1970 1 25.4797 59.0737 60.8983 
4691 1 -21.6994 60.9364 65.5732 
5823 1 75.4302 -74.0459 -20.4234 
1938 1 28.0767 23.0225 9.01568 
4690 2 -21.631 61.7412 65.0596 
1518 1 27.1809 63.1817 35.2779 
5821 2 74.6235 -73.8389 -19.9515 
1779 1 -15.7213 -30.1382 11.8977 
1275 1 -21.1732 15.033 7.90917 
2469 1 -18.5287 12.7791 -18.5284 
2468 1 -19.659 11.7721 -18.5423 
1777 2 -16.097 -29.4741 11.3198 
454 2 -18.8745 21.7604 37.3544 
3901 2 73.4882 -27.4764 9.64682 
455 1 -18.4989 20.9066 37.1398 
934 2 -19.6545 64.4906 -19.2945 
328 2 23.1606 18.1258 35.0345 
936 1 -19.6204 65.0421 -18.5129 
4313 1 73.8234 15.2045 37.0679 
4824 1 69.7999 20.392 9.86713 
935 1 -20.2161 63.7564 -19.0458 
3902 1 73.869 -28.346 9.76929 
5836 2 -20.9333 21.3895 6.54218 
4630 2 69.8509 115.045 66.1166 
4004 1 23.0598 17.5537 12.292 
5555 1 -68.2775 106.474 -14.5042 
1516 2 27.7212 62.4051 35.4232 
3903 1 73.8628 -27.1642 8.8231 
1273 2 -21.1552 15.7458 8.54776 
4692 1 -21.7076 62.4445 65.7044 
4823 1 69.3558 19.6615 8.6177 
456 1 -18.9908 21.7396 38.3042 
1517 1 27.7575 61.9747 34.569 
4312 2 73.9926 14.6195 37.8063 
1274 1 -21.2273 15.3094 9.39664 
1969 2 24.943 59.0995 60.1061 
5554 2 -67.3557 106.728 -14.463 
632 1 116.996 -29.1442 60.1211 
583 2 75.1721 59.5027 40.968 
1007 1 73.4264 21.3837 14.2311 
5556 1 -66.8896 105.913 -14.2782 
2433 1 75.8963 66.1953 122.664 
2460 1 26.9916 64.9827 40.6039 
2212 2 75.8104 17.6606 -12.1961 
4631 1 70.2296 114.78 66.9549 
2458 2 27.5107 64.91 39.803 
4221 1 116.341 -24.8601 -12.5122 
1623 1 27.6194 12.2547 68.46 
924 1 24.2432 13.4077 14.1601 
4219 2 116.43 -25.8042 -12.6429 
1621 2 26.7546 12.2656 68.8702 
2213 1 74.9306 17.5912 -12.5667 
4363 2 25.2257 65.2388 41.5888 
2907 1 27.2459 -32.3327 14.744 
4005 1 24.2174 17.3748 13.2511 
584 1 76.0145 59.551 41.42 
4365 1 25.0352 66.1703 41.6996 
2431 2 75.7531 67.0429 122.243 
2432 1 75.8857 66.8732 121.31 
2534 1 -60.4627 -30.2517 -18.26 
2235 1 -58.853 19.2189 12.1777 
3776 1 31.1497 -25.2214 33.1433 
3775 2 30.7672 -24.3467 33.2132 
855 1 30.7268 -28.1877 37.9017 
1613 1 170.237 21.386 66.3376 
20 1 -59.7233 -27.3887 7.4654 
3123 1 30.7348 106.272 87.6171 
854 1 31.7171 -27.4451 37.0299 
5176 2 31.9671 -81.5697 39.7104 
3121 2 31.1289 105.887 88.4003 
4247 1 33.3469 -34.9991 9.46117 
1612 2 169.847 22.2271 66.0982 
2533 2 -59.5311 -30.1584 -18.4591 
5088 1 -11.7491 66.8267 -19.4306 
1935 1 32.3469 63.1011 10.1449 
5751 1 31.1079 12.9126 62.7075 
2535 1 -59.4677 -30.3339 -19.398 
1614 1 168.932 22.0226 65.9086 
19 2 -59.1294 -27.6057 8.18404 
21 1 -59.2113 -28.554 8.28515 
5750 1 32.165 13.5712 63.5681 
853 2 31.3045 -27.4245 37.8934 
1933 2 33.0206 62.9783 10.8138 
2590 2 79.9203 60.4385 -18.4351 
1934 1 32.5313 62.8201 11.6211 
4962 1 -57.2085 -25.1574 -18.9732 
4961 1 -57.3758 -24.992 -17.4777 
5749 2 31.2317 13.3598 63.5447 
4960 2 -57.6568 -24.6251 -18.316 
3777 1 31.3724 -23.8645 33.7766 
5925 1 123.263 14.218 12.6098 
2234 1 -57.4447 19.1198 12.7243 
5924 1 122.549 15.0786 13.6299 
5177 1 31.985 -81.3323 40.6375 
2233 2 -58.3636 19.1007 12.9918 
5753 1 -11.8699 107.55 41.3996 
2286 1 78.5235 20.5327 41.9087 
5434 2 33.232 110.695 41.7758 
5754 1 -11.5491 109.029 41.3553 
5435 1 33.0859 111.537 41.3442 
2285 1 77.1641 21.1682 41.7086 
5923 2 122.61 14.9129 12.6891 
5457 1 45.3919 -30.1295 61.1994 
634 2 42.2423 -26.4549 -20.7893 
2780 1 -7.39535 -28.9728 37.8071 
3237 1 85.1754 61.42 38.4237 
645 1 41.669 112.561 87.5028 
1297 2 44.7864 115.057 -42.5283 
5521 2 -97.0714 105.934 60.5379 
246 1 136.508 109.503 64.5428 
3055 2 -56.4546 67.0321 65.3828 
932 1 40.9355 -34.5053 9.49099 
5004 1 82.9709 -24.0116 -16.0392 
624 1 -0.487044 -26.8838 -18.0791 
3235 2 84.3316 61.8717 38.4383 
5003 1 84.1082 -24.5803 -15.2175 
5682 1 -54.1325 66.5333 -18.4098 
3236 1 83.7197 61.2259 38.7913 
5379 1 89.3065 -71.9975 36.4791 
2779 2 -8.01773 -29.6155 37.4668 
5087 1 -10.2464 66.9012 -19.262 
184 2 -6.3705 19.2146 11.3592 
2798 1 45.1044 108.076 -20.4481 
4590 1 87.1331 65.5876 -44.8998 
3473 1 36.3032 58.7184 60.9911 
643 2 41.5522 111.611 87.487 
463 2 38.7627 20.5223 8.42975 
3885 1 41.6302 111.527 -42.5011 
3519 1 41.9241 -25.596 39.0137 
1120 2 -3.49929 61.2422 38.1571 
5523 1 -96.9496 106.801 60.9242 
1584 1 45.2415 60.5179 -96.1121 
3593 1 88.3391 155.997 -17.3252 
3884 1 41.8932 112.818 -41.7561 
931 2 40.8315 -34.6323 10.434 
5377 2 90.0195 -72.1764 35.8661 
5002 2 83.2685 -24.8151 -15.6126 
3594 1 88.2296 157.465 -17.6786 
186 1 -7.05579 19.8379 11.6003 
5905 2 -47.9308 60.8682 33.4418 
5743 2 36.5081 16.9155 34.0185 
2410 2 35.1708 62.9135 9.35788 
4588 2 86.9861 64.754 -44.453 
185 1 -5.55382 19.6483 11.6065 
5745 1 36.1832 16.7668 34.9065 
5680 2 -54.9041 66.0224 -18.1651 
3592 2 88.6571 156.652 -17.9469 
5204 1 40.5977 15.483 -19.9271 
2591 1 80.1941 61.305 -18.1345 
5205 1 41.91 15.2478 -19.2099 
5086 2 -10.9784 67.3158 -19.7187 
1980 1 43.7146 59.2328 35.5896 
266 1 -4.18827 67.7953 63.552 
5456 1 44.4055 -30.1937 62.3461 
2931 1 -7.02413 17.2862 7.11214 
4589 1 86.0495 64.7496 -44.2554 
2592 1 80.6387 60.1398 -18.9927 
5907 1 -48.696 61.0439 33.9893 
265 2 -4.43449 67.1735 62.8671 
3057 1 -55.9083 67.7426 65.719 
1298 1 43.9522 115.43 -42.8131 
2930 1 -6.77149 16.7481 8.50446 
5203 2 41.2076 14.7906 -19.6723 
5681 1 -54.5678 65.3473 -17.5757 
3883 2 41.9813 111.868 -41.6787 
6117 4 42.4002 22.4975 37.6313 
5455 2 45.0128 -29.6017 61.9023 
5744 1 36.547 17.8682 33.9336 
267 1 -3.85784 67.3845 62.1328 
644 1 40.93 111.434 88.1926 
4349 1 -3.65535 -23.8756 -17.9514 
5378 1 90.0939 -71.3771 35.3446 
1979 1 44.6652 60.384 35.8401 
2929 2 -6.32015 17.0507 7.71645 
2781 1 -7.6977 -30.4562 37.7941 
1299 1 45.3693 115.172 -43.2789 
2412 1 35.8328 63.1426 10.0102 
1122 1 -4.03895 60.5106 37.8576 
464 1 38.9653 21 7.62537 
2411 1 34.337 63.1254 9.77754 
465 1 39.6157 20.2535 8.77064 
1978 2 44.2969 59.603 36.253 
3517 2 41.5442 -26.1967 39.6548 
3056 1 -55.965 66.6852 64.637 
4421 1 38.2996 -34.9255 -21.161 
636 1 42.4688 -25.5475 -20.993 
1121 1 -3.41599 61.1083 39.1012 
1431 1 -92.2758 19.2292 93.3791 
1429 2 -92.4378 18.4302 93.8807 
5514 1 -1.6718 -23.7112 -20.9908 
635 1 41.3034 -26.5135 -20.9664 
1366 2 39.7242 22.7306 13.3738 
3785 1 -50.559 22.1519 -12.3834 
2602 2 -54.7012 13.4547 67.0523 
4874 1 40.7766 -30.3506 13.8781 
4873 2 40.5928 -31.2877 13.9438 
2189 1 87.8943 59.4984 -13.2126 
5120 1 83.8254 59.9778 67.9147 
2190 1 89.1379 60.2087 -12.7218 
1583 1 45.6782 59.8444 -94.8285 
5752 2 -11.3337 108.194 40.9381 
2201 1 -2.13758 63.4674 40.4811 
2200 2 -2.11833 62.9408 41.2802 
3587 1 90.2915 -23.9175 -13.4167 
268 2 -50.5459 18.3617 -12.2745 
4875 1 40.6697 -31.4823 14.8779 
1131 1 43.438 20.1635 41.8798 
2188 2 88.3148 60.3579 -13.187 
2603 1 -54.9919 12.5521 66.9217 
269 1 -50.2257 18.3439 -13.1764 
5119 2 84.6791 60.0489 68.3417 
5121 1 85.1025 60.7908 67.9097 
3586 2 90.4668 -23.9336 -12.4759 
2604 1 -55.4797 13.9144 67.3668 
2202 1 -2.71091 62.2108 41.101 
3518 1 40.9081 -25.6656 40.1338 
1368 1 38.9982 23.1255 13.8568 
327 1 -9.28015 23.3454 -12.9797 
1430 1 -93.3823 18.4316 94.0359 
5149 2 69.3688 -46.0998 15.7436 
2177 1 70.1334 1.32411 44.8681 
2050 2 -17.5162 55.2145 43.53 
3324 1 73.1644 0.262646 -38.9566 
1069 2 -18.5288 47.3239 17.412 
3997 2 116.183 3.18435 15.5201 
3999 1 115.557 2.46151 15.5692 
1070 1 -19.0618 47.2387 18.2025 
2084 1 25.4856 101.235 -8.21003 
4949 1 115.866 99.2958 -38.7565 
3686 1 24.2609 55.9228 17.3178 
4950 1 116.11 100.751 -38.4173 
4948 2 116.447 100.031 -38.9506 
3687 1 23.1917 55.0073 16.7605 
3685 2 24.1396 55.1388 16.7823 
6072 3 75.3714 -40.3316 14.9794 
2051 1 -17.9841 55.294 42.6988 
2083 2 26.2306 101.81 -8.03563 
3261 1 -17.6569 -42.5165 14.9388 
2052 1 -17.4193 56.1156 43.8381 
4464 1 70.5327 3.90564 -36.9162 
4423 2 28.1096 10.9314 16.5682 
4424 1 27.7407 11.4704 15.8685 
3259 2 -16.852 -42.6031 15.4495 
835 2 -21.1416 11.11 124.383 
5390 1 68.7096 100.411 99.9136 
836 1 -22.0368 10.8015 124.243 
4675 2 -109.255 49.7815 44.7308 
5150 1 68.7875 -45.925 15.0035 
2178 1 70.5028 2.64654 45.5057 
3260 1 -17.1239 -43.0474 16.2525 
5495 1 27.1977 57.7716 -8.85312 
4676 1 -109.569 48.893 44.5632 
2176 2 70.6508 1.70364 45.5783 
3416 1 73.2323 51.5306 17.9185 
4425 1 29.0343 11.1768 16.5981 
4462 2 70.4603 4.29848 -36.0463 
3415 2 72.9253 52.2925 18.4099 
2488 2 -60.9568 99.8129 44.3119 
4463 1 71.3148 4.70191 -35.8933 
4677 1 -108.443 49.66 45.2234 
5494 2 26.6457 57.5395 -8.10637 
2085 1 26.8872 101.555 -8.68394 
5391 1 69.5108 99.2307 100.422 
3550 2 68.8839 10.4019 18.683 
3417 1 73.7207 52.7869 18.6078 
1952 1 75.6884 1.0764 -8.2704 
837 1 -20.6415 10.7322 123.659 
5496 1 26.7339 56.5895 -8.02886 
1951 2 75.5907 2.02612 -8.20162 
5389 2 69.2125 100.106 100.669 
3334 2 69.2609 96.8971 -6.10241 
3336 1 69.9173 97.5822 -5.97625 
3335 1 68.5858 97.3081 -6.64231 
1018 2 -17.1325 49.5168 49.9194 
3951 1 23.5246 150.672 22.3393 
2688 1 74.695 53.8246 -30.3574 
2881 2 26.2253 7.16208 48.7891 
2882 1 26.5325 7.73129 48.0835 
1020 1 -17.4193 49.4931 49.0064 
2883 1 26.9181 7.20209 49.4485 
3081 1 165.966 93.8627 -3.70213 
5706 1 26.4349 47.9744 -5.28904 
2686 2 73.9398 54.1315 -30.8592 
3949 2 24.2815 150.106 22.1901 
4132 2 -22.8348 53.1998 -3.28532 
3950 1 25.004 150.71 22.0204 
4065 1 -19.8543 -135.232 48.4981 
2183 1 28.7218 58.4398 -4.14477 
2182 2 28.8817 58.3733 -3.20337 
6020 3 23.6248 -39.6475 21.624 
4063 2 -19.9728 -136.08 48.9258 
1005 1 -60.9356 9.07511 -5.71613 
4064 1 -19.6332 -135.952 49.8115 
1019 1 -16.645 50.3369 49.9966 
720 1 -18.2729 142.36 19.6039 
718 2 -18.5399 142.444 20.5193 
2687 1 74.312 54.7156 -31.5199 
719 1 -19.1406 143.189 20.5265 
3667 2 -17.5122 104.968 75.5933 
5465 1 75.3897 7.35288 20.2431 
3668 1 -17.3365 105.057 74.6566 
4291 2 69.4631 -46.7636 47.6808 
5704 2 25.8865 47.3632 -4.79711 
1003 2 -61.8399 8.81239 -5.54425 
5705 1 25.2537 47.0392 -5.43804 
3669 1 -18.3766 105.361 75.7138 
5466 1 75.9351 5.94075 20.2606 
1004 1 -62.3414 9.6255 -5.6036 
5464 2 75.5087 6.58048 19.6904 
4292 1 68.5961 -46.3671 47.5948 
4293 1 70.0441 -46.1778 47.1954 
1483 2 -14.0773 -45.5438 -37.8957 
1329 1 77.2396 57.4298 -10.3184 
2939 1 -12.3647 -36.9455 42.7327 
1177 2 79.2318 2.86219 44.8044 
1327 2 76.5711 58.1122 -10.3795 
426 1 78.9042 8.55412 45.1238 
424 2 78.7311 8.10108 45.949 
425 1 79.145 7.24441 45.8439 
1179 1 78.5614 2.30696 44.4063 
1484 1 -14.0658 -45.8091 -38.8154 
651 1 168.376 58.5999 18.5024 
2490 1 -60.8358 100.223 45.1683 
1485 1 -14.3644 -46.3256 -37.424 
1178 1 78.8558 3.12807 45.6436 
1953 1 76.4295 2.32908 -7.85401 
2489 1 -60.8796 98.8742 44.4825 
4282 2 -13.6022 9.63461 47.8867 
830 1 33.3437 100.995 49.3972 
831 1 32.3943 102.151 49.6306 
829 2 32.4609 101.2 49.7061 
5997 1 -13.664 146.626 48.6372 
5995 2 -14.2145 145.853 48.511 
1438 2 79.7003 11.4623 48.8077 
4573 2 -57.7865 48.3103 21.3146 
4283 1 -13.7797 10.466 47.4468 
4575 1 -57.9628 47.46 21.7173 
1439 1 79.1476 10.731 48.5322 
2301 1 -57.1708 96.4716 22.8515 
2541 1 79.7283 58.4554 -30.8572 
3722 1 -13.7212 144.363 20.3464 
3721 2 -13.5198 143.612 19.7888 
3723 1 -12.9981 143.033 20.345 
5996 1 -14.6596 145.736 49.3502 
4284 1 -13.2286 9.07702 47.2042 
5536 2 44.2898 -43.4544 17.0121 
6017 3 -10.0966 2.04578 16.9751 
5537 1 44.4564 -42.7319 16.4068 
6082 4 -6.50132 3.90118 17.6935 
3873 1 39.6835 3.2984 70.228 
3871 2 40.0233 3.09378 69.3568 
4660 2 82.3852 51.2234 -10.1352 
4662 1 83.3054 50.9926 -10.0086 
5313 1 -4.2374 6.38456 15.3801 
6107 4 80.1135 -37.3227 16.927 
3893 1 -52.3016 194.46 43.7525 
5127 1 80.6905 8.47111 15.7258 
5125 2 80.8583 7.58112 15.416 
2910 1 89.9828 56.3256 69.5786 
1493 1 42.985 101.837 17.1593 
5126 1 80.3843 7.01997 16.0297 
5511 1 40.4816 50.061 17.9359 
67 2 37.9018 95.3021 17.4423 
6033 3 -3.41218 49.4094 43.1455 
1492 2 43.439 101.97 16.3271 
3017 1 80.9395 104.62 -10.8928 
1494 1 42.9647 101.419 15.7044 
3892 2 -53.2201 194.568 43.5056 
3894 1 -53.6739 194.727 44.3333 
3062 1 38.4984 -46.0321 45.9868 
5538 1 45.114 -43.5654 17.4859 
2465 1 -52.6138 -36.6271 16.1089 
2464 2 -52.5303 -36.3242 17.0131 
2466 1 -51.6732 -35.8995 17.0458 
2196 1 -9.98533 55.8064 -36.5379 
4661 1 82.4044 51.96 -10.7462 
69 1 38.3064 96.1696 17.4487 
2194 2 -9.42375 55.3126 -35.9404 
2195 1 -9.87254 54.4748 -35.8266 
5625 1 -48.4273 46.9214 44.5315 
5509 2 41.075 49.3443 18.161 
68 1 38.5298 94.7478 16.9791 
598 2 -0.873967 99.0013 42.4673 
4192 2 -96.4295 53.0434 43.9495 
4193 1 -96.9295 52.3126 44.313 
4194 1 -95.7109 53.1738 44.5683 
1471 2 35.2496 58.1775 45.763 
1473 1 34.7585 57.5458 45.2377 
1808 1 -0.289664 54.8778 16.9882 
3016 2 81.3649 105.357 -11.3316 
3808 2 80.6821 52.7558 18.6903 
5510 1 41.063 49.3144 19.1177 
5623 2 -48.6971 47.031 43.6196 
2393 1 88.0394 52.1493 -8.03855 
2392 2 88.1532 53.0177 -8.42469 
3809 1 81.2702 52.1629 18.2224 
6045 3 37.479 57.1692 46.0877 
3036 1 44.2058 98.1511 19.1041 
2394 1 88.5592 53.5375 -7.73097 
600 1 -1.44145 99.7584 42.6123 
1425 1 -5.33866 9.39076 19.2926 
1869 1 43.1643 -35.4209 18.8246 
2146 2 -9.23354 10.1006 48.4321 
5404 2 -5.32958 -41.9271 47.2865 
3063 1 39.2385 -45.9519 47.305 
5599 2 -8.32503 99.9738 23.5115 
5406 1 -5.17975 -42.5822 47.9681 
794 1 42.8764 96.6575 20.7266 
793 2 42.6752 95.9793 21.3714 
2148 1 -8.91841 10.3963 49.2862 
795 1 41.7478 95.7857 21.2346 
5601 1 -8.19067 100.153 22.5809 
5600 1 -7.47888 99.6473 23.8175 
6055 3 42.4772 3.84977 23.687 
691 2 -100.353 -35.8883 -3.27175 
2568 1 37.2571 143.306 103.47 
5870 1 -2.73538 -40.6185 21.6072 
693 1 -101.282 -35.6615 -3.22924 
2567 1 37.5718 142.693 104.818 
4297 2 -10.2377 52.2212 -5.86811 
26 1 44.4049 8.09164 20.7489 
3035 1 44.3718 97.797 20.5666 
5713 2 38.4327 -40.1196 -6.05873 
4805 1 -2.70335 11.2544 -32.4144 
5921 1 36.1376 49.0326 47.472 
5871 1 -4.09725 -41.2641 21.4644 
5714 1 38.9803 -40.8189 -6.41577 
4298 1 -9.91621 52.9109 -5.28737 
2566 2 36.8707 142.783 104.173 
5988 1 40.1707 57.2767 76.8763 
4299 1 -9.88894 51.4115 -5.49526 
5869 2 -3.36405 -41.1702 22.0725 
5987 1 40.5471 55.8158 77.0018 
1867 2 43.04 -36.0208 19.56 
5986 2 40.4302 56.5148 76.3584 
1424 1 -5.75802 9.18746 20.733 
5557 2 35.027 101.546 22.3635 
6138 4 40.186 2.35191 -6.22458 
4804 2 -2.36868 11.5233 -31.5589 
5558 1 35.6485 101.573 23.091 
4991 1 40.4721 0.857564 48.6917 
4931 1 81.9288 0.438625 -31.2632 
4806 1 -2.58539 10.7951 -30.9767 
247 2 -8.08941 -43.6401 74.761 
5559 1 35.4318 102.084 21.6825 
2147 1 -10.0903 10.5163 48.3354 
74 1 -5.65454 2.9713 22.3059 
38 1 -51.2904 53.9211 105.176 
73 2 -5.71078 3.34246 23.1864 
75 1 -6.11937 2.65418 23.7114 
2300 1 -55.9784 96.212 23.7474 
3061 2 38.6539 -46.5155 46.7982 
2299 2 -56.8844 96.5205 23.7635 
1423 2 -6.07244 9.09843 19.8333 
2126 1 -0.491207 55.8795 22.6453 
4574 1 -57.0212 48.1591 20.7599 
249 1 -7.80441 -42.9355 74.1792 
248 1 -7.32619 -44.2129 74.8359 
5920 2 35.695 48.2727 47.094 
25 2 43.4954 8.04042 20.4551 
27 1 43.3098 8.90821 20.0962 
3545 1 -45.7913 50.7745 22.7801 
5715 1 38.5264 -39.3994 -6.68221 
3034 2 43.7227 97.8259 19.8637 
4523 1 84.1767 58.2988 50.6634 
1868 1 42.2906 -35.664 20.0368 
3994 2 137.028 95.1025 47.6185 
4522 2 85.092 58.548 50.5357 
5922 1 36.3622 47.5864 47.0846 
2125 2 -0.0846558 55.8495 21.7793 
3544 2 -45.6947 50.8742 21.8331 
3996 1 136.607 95.9532 47.7435 
3810 1 80.7 52.4463 19.5959 
5405 1 -5.58743 -42.4355 46.5175 
2885 1 -1.21262 0.418811 46.5496 
2214 1 76.0461 16.7616 -11.9673 
258 1 29.619 62.8047 18.0715 
1008 1 74.2809 20.4541 15.0664 
1006 2 73.4131 20.8563 15.0298 
110 1 -19.0342 14.278 -10.0401 
1498 2 29.3906 23.3563 98.1655 
257 1 29.7714 61.4917 18.8096 
2522 1 160.788 117.022 72.4733 
109 2 -18.6352 13.5963 -9.49947 
1500 1 29.9704 22.6016 98.2681 
5298 1 69.8042 -32.6828 70.5782 
6002 3 70.6888 12.3514 45.263 
5297 1 68.7424 -32.0944 71.4828 
2521 2 160.78 116.516 73.2859 
111 1 -17.701 13.6454 -9.70216 
1759 2 -18.7196 64.5442 43.542 
922 2 24.5088 13.7634 15.0081 
256 2 30.1258 61.9927 18.075 
4220 1 117.216 -26.042 -12.1505 
1761 1 -18.5763 63.62 43.3383 
2906 1 28.6862 -32.0078 15.0786 
5045 1 26.9618 62.7839 19.1135 
44 1 -20.8878 -31.5673 18.5491 
923 1 25.3086 13.286 15.2287 
1760 1 -18.1654 64.7106 44.3045 
43 2 -20.39 -31.1569 19.2562 
3037 2 -18.8434 -72.4379 17.9105 
2962 2 69.4775 -27.2313 99.567 
2963 1 69.4318 -26.3134 99.8346 
4364 1 25.6895 64.9919 42.3889 
5296 2 69.6153 -32.4869 71.4959 
2964 1 70.3344 -27.5283 99.8733 
3038 1 -18.4278 -72.6374 17.0717 
2905 2 27.787 -31.8389 15.3601 
3039 1 -19.0572 -73.2937 18.2821 
5044 2 27.7796 63.2695 19.2212 
2418 1 -110.519 -28.9653 73.3784 
2416 2 -110.804 -28.0617 73.5132 
2936 1 30.1894 12.733 74.2731 
5795 1 27.169 -118.554 -3.28085 
461 1 -15.2483 15.663 -31.7374 
3763 2 -19.8242 69.9769 74.869 
2500 2 -15.7182 -75.0984 46.7436 
3764 1 -20.6957 69.9523 74.474 
1389 1 120.379 -24.9513 -5.5545 
45 1 -20.6383 -31.6467 20.0401 
2937 1 29.6435 13.8263 75.1667 
3072 1 -15.5046 20.5632 -34.1639 
3070 2 -15.4592 21.4792 -33.8896 
1388 1 118.909 -24.6579 -5.76679 
5275 2 -19.8835 11.9647 77.2765 
2175 1 23.3484 158.361 46.9976 
5277 1 -20.756 12.029 77.6648 
1958 1 22.8626 12.0489 50.3052 
3801 1 68.7186 -33.6821 47.7299 
2501 1 -16.6534 -75.2107 46.9139 
647 1 27.6923 64.9947 -59.2491 
3800 1 70.1812 -33.8266 48.0928 
2173 2 22.8499 158.202 47.799 
1279 2 -22.3383 -72.4119 22.2438 
6078 4 27.4745 16.4993 22.2184 
5276 1 -19.7244 12.8299 76.8992 
648 1 27.8688 66.4731 -58.975 
1280 1 -21.8898 -71.6599 22.6305 
2935 2 29.4583 13.3447 74.3605 
462 1 -16.7425 15.5307 -31.942 
2473 2 26.5877 154.569 -33.0156 
5046 1 27.9674 63.2183 20.1583 
5096 1 23.6062 113.783 23.6286 
2174 1 23.5145 158.013 48.4614 
744 1 -65.5926 16.8934 76.5682 
5039 1 119.576 64.3494 23.4901 
3799 2 69.5992 -33.6345 47.3576 
742 2 -66.5254 17.106 76.5363 
646 2 27.6848 65.8503 -59.6782 
1895 1 72.4625 -31.1657 -3.50691 
2474 1 26.7589 155.465 -32.726 
743 1 -66.6015 17.926 77.0242 
2475 1 27.2029 154.428 -33.7352 
1281 1 -22.7293 -72.0706 21.4394 
1387 2 119.574 -24.7377 -5.08283 
2417 1 -110.441 -27.8196 74.3651 
460 2 -15.9426 15.0134 -31.8477 
2502 1 -15.2863 -75.5571 47.4642 
3879 1 -15.1631 108.879 -10.7081 
1328 1 76.9684 58.7889 -10.9277 
3877 2 -15.0101 108.826 -11.6514 
6146 4 77.7663 -34.1944 -12.0249 
315 1 -59.6005 -78.8535 -8.69031 
4103 1 -12.4001 -80.4621 -11.164 
4859 1 31.6821 68.4444 16.9128 
4860 1 32.1695 68.82 18.296 
2681 1 168.914 -29.0975 17.7626 
2682 1 168.455 -28.5664 16.4216 
2680 2 169.011 -29.2356 16.8204 
4102 2 -11.6695 -80.2419 -10.5861 
4104 1 -12.0795 -79.8211 -9.83047 
4858 2 31.3892 68.8234 17.7415 
2284 2 77.9115 21.1521 42.3063 
314 1 -58.341 -79.4382 -8.08714 
5472 1 33.7787 -29.884 -36.1072 
3878 1 -14.3791 108.113 -11.7519 
5436 1 32.8032 110.784 42.6269 
313 2 -58.6609 -78.6952 -8.59889 
50 1 79.318 22.1644 -38.7842 
1364 1 79.8957 67.0701 20.7937 
2925 1 -14.5321 114.318 -59.1708 
3584 1 -11.5416 -31.2643 76.6056 
1428 1 34.1196 -24.0478 46.5864 
1440 1 79.5088 12.1581 48.1788 
3796 2 33.0356 -24.0175 -32.0743 
943 2 31.6863 13.3031 -3.74259 
3798 1 32.7327 -24.8533 -31.7194 
944 1 32.3647 13.9219 -4.01298 
2924 1 -13.506 113.636 -58.2919 
1000 2 77.0142 17.0794 48.3265 
1427 1 32.9561 -24.5475 47.4162 
3583 2 -12.3404 -31.7714 76.4602 
1426 2 33.4228 -24.704 46.5952 
945 1 30.8682 13.7932 -3.8243 
3071 1 -15.0931 21.9382 -34.6456 
1801 2 -13.4153 64.8533 77.8564 
2923 2 -13.9149 114.485 -58.4583 
3585 1 -12.1389 -32.3256 75.7062 
1001 1 77.8007 16.7018 47.9327 
1002 1 77.3141 17.4435 49.1595 
6139 4 33.6827 13.1947 -7.27969 
650 1 169.374 59.1976 19.4708 
649 2 168.534 58.7398 19.436 
3935 1 41.1986 59.7026 -36.3793 
1551 1 -6.45503 69.4661 -62.1737 
5817 1 -5.76718 21.7079 71.0039 
3588 1 89.65 -23.6371 -12.0745 
3786 1 -49.5475 22.5548 -11.3316 
3936 1 41.421 59.6225 -37.8747 
3934 2 40.9113 59.2346 -37.1634 
4434 1 90.9945 105.763 42.5658 
4749 1 44.8289 17.674 16.3774 
3398 1 128.377 17.176 -8.01593 
3018 1 80.8586 106.122 -11.0603 
4651 2 45.3471 21.951 -8.10926 
4334 1 -0.0744816 19.8973 -8.72049 
3437 1 35.0524 111.038 15.0579 
4747 2 44.2264 16.9503 16.5493 
4351 2 36.6829 22.0438 16.6051 
1352 1 82.1591 153.099 -35.4852 
1353 1 82.837 154.251 -34.7744 
4333 2 -0.247099 19.6521 -9.6295 
3399 1 129.272 17.7716 -9.08204 
950 1 -4.97353 -78.2459 -10.1116 
5815 2 -6.37948 21.9564 71.6964 
108 1 -2.8377 110.056 -36.9469 
3579 1 90.0328 -33.8807 18.3766 
3397 2 129.095 17.7966 -8.14167 
1130 1 42.3207 20.6864 42.7573 
2105 1 -6.52768 17.9664 -11.0867 
106 2 -3.57337 109.666 -36.4752 
5816 1 -7.24175 21.9058 71.2839 
3778 2 36.4916 61.4874 15.8073 
6028 3 38.3111 107.06 16.5209 
3577 2 89.3545 -33.7177 17.7213 
4352 1 35.8646 22.5203 16.4652 
2783 1 -56.7805 67.8397 18.3516 
4335 1 -1.19548 19.7391 -9.72559 
326 1 -8.50875 22.9346 -11.7435 
5471 1 34.908 -30.0435 -35.1116 
3784 2 -50.1188 21.8335 -11.5953 
1472 1 34.5786 58.7329 46.1599 
4748 1 43.9138 16.6875 15.6836 
2104 2 -7.28843 17.7096 -10.5657 
4432 2 90.8541 106.698 42.4113 
107 1 -3.55295 110.081 -35.6128 
1351 2 83.0094 153.524 -35.3726 
1129 2 42.9415 19.9627 42.6731 
2788 2 41.942 -23.4698 18.4871 
2106 1 -8.01408 18.2115 -10.9368 
2789 1 41.2719 -24.1229 18.2853 
949 2 -5.79469 -78.4817 -10.5433 
2782 2 -56.0384 67.2416 18.44 
5470 2 34.5528 -29.4385 -35.7627 
951 1 -6.39032 -77.7617 -10.3356 
270 1 -49.8561 18.8086 -11.7838 
3578 1 88.8929 -32.9426 18.0414 
1220 1 -0.868704 62.8559 45.3352 
3436 2 35.7839 111.291 15.621 
3780 1 36.6819 62.4254 15.8013 
2784 1 -56.4261 66.3682 18.384 
1219 2 -0.880036 62.9009 46.2913 
3438 1 35.4024 111.353 16.4967 
4433 1 90.5518 107.037 43.2536 
4353 1 36.4074 21.1704 16.8837 
49 2 80.0477 22.7692 -38.6503 
3779 1 35.536 61.4362 15.7908 
1550 1 -7.04479 68.5125 -61.1564 
2041 2 88.1449 -29.3678 -61.4711 
2454 1 -46.3541 12.1419 -3.99093 
3234 1 34.9348 14.3111 -7.26191 
3694 2 88.7434 66.5342 75.3635 
1088 1 -5.17942 17.4782 -61.1193 
4513 2 132.271 59.1213 47.2505 
4768 2 89.0386 22.2336 -6.64524 
1089 1 -6.60677 17.0978 -61.4508 
4515 1 131.672 58.6292 47.812 
137 1 36.9055 70.0468 74.5395 
3696 1 88.9932 67.4475 75.2232 
2861 1 129.669 23.324 76.7817 
2042 1 88.2743 -28.6933 -60.8043 
3695 1 88.2828 66.5376 76.2026 
136 2 35.9485 70.0347 74.5541 
5102 1 35.3827 64.3346 50.2756 
670 2 132.763 23.2959 -30.3342 
2043 1 89.0291 -29.5887 -61.7638 
4769 1 88.6095 22.6771 -5.91348 
5103 1 36.4718 64.1748 49.2362 
4524 1 85.0709 59.5005 50.4442 
5001 1 38.7274 16.002 49.9521 
4916 1 -4.59943 19.6106 50.8191 
2860 2 128.861 23.2851 77.294 
1394 1 -8.96582 -74.6494 23.0657 
6070 3 35.4887 22.1554 -31.525 
1670 1 -8.17022 14.4855 22.6088 
4770 1 88.5981 22.5743 -7.42384 
5101 2 35.6748 64.6692 49.4276 
518 1 -91.9115 20.8396 21.7401 
1363 2 80.0735 66.8031 21.6955 
46 2 -53.7653 20.3249 20.0615 
1671 1 -9.57769 14.0505 22.9577 
4915 2 -4.16938 20.2607 50.2634 
4514 1 132.123 60.0372 47.4862 
4652 1 44.5754 21.7904 -7.56616 
4178 1 -0.24549 61.7947 50.8165 
1549 2 -6.62528 69.3691 -61.2368 
2282 1 -1.32823 17.724 77.1674 
1669 2 -9.0831 14.5895 22.3404 
1365 1 80.535 65.9686 21.6121 
4917 1 -4.46943 21.1035 50.6038 
6119 4 -6.699 61.1699 23.2322 
48 1 -54.4589 20.515 19.4299 
4977 1 -92.4331 -33.0959 48.2591 
1168 2 40.6219 61.5765 48.4779 
1393 2 -8.42864 -73.8581 23.1051 
3233 1 35.8944 15.0261 -6.33469 
4975 2 -92.5599 -32.2208 48.6257 
2281 2 -0.60734 17.9482 76.579 
1169 1 40.0012 61.3496 49.1703 
47 1 -53.4009 19.488 19.7732 
3832 2 -48.8386 14.8257 -58.0524 
3833 1 -48.1075 14.9124 -58.664 
3232 2 35.473 15.0995 -7.19097 
4999 2 38.31 16.8592 49.8679 
3834 1 -49.6108 14.7414 -58.6117 
1170 1 40.3574 62.4521 48.1959 
1087 2 -5.94863 17.0375 -60.7584 
4976 1 -92.3801 -31.627 47.8968 
5000 1 38.7975 17.2959 49.1694 
2283 1 -0.977293 17.8576 75.7008 
1395 1 -7.9554 -73.8477 22.2731 
519 1 -91.373 19.5055 22.2114 
5742 1 -0.21674 58.7714 101.4 
5740 2 -0.171878 59.4045 100.684 
6037 3 -17.9633 2.59036 25.1014 
1887 1 -19.0989 5.17942 -2.00624 
1886 1 -20.3312 4.39146 -2.39657 
1885 2 -19.3872 4.44336 -2.54598 
1538 1 -15.2854 4.94424 25.263 
1537 2 -15.6479 4.05843 25.2768 
4405 2 -22.3075 48.9181 24.7551 
1791 1 26.1634 94.1379 -2.84376 
6032 3 27.0239 10.9725 52.2227 
4134 1 -22.5326 52.5379 -2.66333 
2184 1 29.8108 58.5805 -3.10257 
2744 1 114.679 -86.1974 25.9967 
4407 1 -21.9638 49.8026 24.8804 
2472 1 70.1547 8.99375 25.2843 
1789 2 26.8106 94.0314 -2.14663 
4406 1 -22.3034 48.5326 25.6312 
2470 2 70.4581 9.90098 25.317 
2471 1 69.8984 10.3639 24.6935 
6125 4 23.8865 98.2389 25.6822 
1957 2 23.152 11.5511 51.0698 
1606 2 26.8219 -87.3146 53.1289 
1607 1 27.4267 -86.5735 53.1647 
3280 2 24.8866 -42.8519 30.4937 
3281 1 25.0678 -41.9312 30.3048 
4738 2 23.3671 1.03574 27.737 
2609 1 160.251 54.3796 28.1348 
2745 1 115.118 -87.5952 26.3784 
141 1 25.7654 -86.9253 30.4445 
376 2 71.3919 105.022 2.44947 
3371 1 28.5977 2.5569 5.27551 
3370 2 28.2229 2.96137 4.4931 
4739 1 24.0564 0.408197 27.5193 
1341 1 -19.6318 0.34805 1.12724 
6031 3 28.3324 49.2211 2.2101 
1293 1 69.7213 3.93953 -81.1987 
1291 2 70.0943 3.53953 -80.4131 
139 2 25.0874 -86.4759 30.949 
1292 1 69.9522 2.60035 -80.5314 
2679 1 -18.9881 99.0771 1.62921 
2677 2 -18.7993 99.5651 2.43071 
2678 1 -17.9215 99.2797 2.68427 
140 1 25.535 -85.7232 31.3354 
3282 1 24.5018 -43.1914 29.6857 
1528 2 27.1819 3.69146 27.5187 
1149 1 -22.6097 -46.5888 83.4128 
1530 1 26.2269 3.75224 27.541 
3372 1 27.8499 3.78609 4.8045 
1339 2 -19.1358 0.864479 1.76241 
1594 2 73.4687 55.7681 -54.9721 
3904 2 -17.9388 58.5724 -48.8931 
985 2 23.8512 151.146 54.9735 
986 1 24.6502 151.407 55.4311 
987 1 24.1485 150.884 54.1023 
1340 1 -19.351 0.474187 2.6095 
1529 1 27.4644 4.50452 27.0999 
6122 4 -19.8556 9.93249 4.89486 
1309 2 29.3631 4.66903 56.6403 
1596 1 73.3259 56.2169 -54.1388 
377 1 71.4113 104.459 3.22349 
1944 1 -22.7318 -44.1589 5.11588 
3504 1 28.998 53.6017 31.3116 
3502 2 29.3314 54.4343 30.9772 
5179 2 -63.1385 -35.3019 54.3182 
2319 1 -61.1084 1.97214 0.513233 
2658 1 -21.4579 56.7726 4.96239 
2576 1 26.7565 52.4037 31.8962 
1942 2 -21.8242 -44.2545 5.40479 
3906 1 -18.4427 57.8547 -49.2768 
1943 1 -21.3026 -43.9535 4.66077 
3503 1 28.5536 54.8957 30.6637 
2656 2 -22.408 56.6599 4.99153 
2318 1 -61.501 3.03299 -0.492933 
1311 1 29.8889 4.98104 55.9039 
1310 1 30.0051 4.36428 57.2815 
252 1 -15.8441 55.513 -21.6688 
2657 1 -22.6957 57.2312 5.70362 
2317 2 -61.8705 2.38871 0.110874 
5593 2 29.3384 93.9401 56.2911 
2743 2 115.192 -86.679 26.6454 
1971 1 25.2611 58.3681 59.5768 
2575 2 27.6951 52.3866 32.0833 
2577 1 27.7876 52.8887 32.8929 
1595 1 74.4204 55.6997 -55.0479 
1608 1 25.9626 -86.9319 53.3064 
4810 2 123.47 49.3052 -1.90757 
4447 2 -15.0615 100.401 -2.49372 
4449 1 -14.3352 100.68 -3.0516 
1539 1 -14.9118 3.49422 25.04 
942 1 77.4755 0.733607 -2.51602 
4811 1 124.249 49.3265 -2.46324 
2539 2 79.8614 58.5984 -29.9201 
4448 1 -15.055 101.021 -1.76415 
4812 1 123.812 49.2044 -1.01909 
749 1 31.855 5.13973 4.73959 
3549 1 -151.348 58.5046 0.0977961 
2413 2 -13.2358 54.9588 3.48198 
3575 1 78.67 100.633 32.7318 
3963 1 30.9963 54.7311 -26.9718 
3547 2 -151.298 57.6189 0.457328 
750 1 30.9235 3.99308 5.07041 
5549 1 33.7674 95.0965 54.805 
4807 2 -14.347 49.3469 56.9035 
5441 1 -11.8173 50.3224 -25.7212 
5442 1 -13.1892 49.687 -25.6437 
3450 1 78.8058 6.50382 109.335 
167 1 -11.57 55.0572 0.696294 
4808 1 -14.362 48.5402 57.4185 
3954 1 -103.128 10.2738 2.2479 
5440 2 -12.4355 49.7923 -26.2242 
3952 2 -102.9 10.1745 3.17227 
2414 1 -12.6475 55.7081 3.57476 
4809 1 -14.0877 50.025 57.5273 
166 2 -11.7339 56 0.719377 
3449 1 77.9145 7.16383 110.366 
168 1 -12.5584 56.1118 0.246147 
3548 1 -151.448 57.732 1.39586 
748 2 31.3755 4.41441 4.33935 
3448 2 77.8978 6.54558 109.635 
1634 1 79.0136 46.9342 -23.0928 
3962 1 30.803 56.2052 -27.2574 
2415 1 -14.1081 55.3167 3.64714 
5548 2 34.0812 94.2331 54.5362 
1716 1 77.6267 10.6234 112.282 
1714 2 76.9992 10.9775 111.651 
1715 1 76.4697 11.592 112.16 
3961 2 30.5363 55.3352 -27.5546 
3812 1 -11.9457 10.5904 -21.8159 
692 1 -100.075 -35.9331 -2.35696 
5282 1 81.7689 5.3227 24.6028 
5281 2 81.4249 4.83476 25.351 
5283 1 80.6345 4.41009 25.0177 
4611 1 -93.6765 95.8357 -1.13816 
409 2 -0.835684 9.27662 24.2403 
39 1 -49.9153 54.0233 105.801 
410 1 -1.76148 9.13582 24.4386 
5646 1 -0.754243 51.7181 24.9781 
37 2 -50.5891 54.5446 105.365 
4609 2 -94.2863 95.9251 -1.87055 
2715 1 -7.08595 -46.4393 24.5757 
1314 1 38.9794 4.47077 -28.9879 
5645 1 -0.568045 50.2228 25.1239 
2713 2 -6.80461 -45.5375 24.4216 
5338 2 -49.1956 -134.972 -1.76965 
206 1 -0.483055 -46.4471 51.2033 
5644 2 -0.635038 50.9169 24.4682 
4610 1 -94.7152 95.0715 -1.9312 
5340 1 -48.261 -134.795 -1.66261 
1312 2 39.1802 5.28481 -28.5262 
297 1 36.9855 -86.8769 26.0126 
2714 1 -6.53775 -45.2188 25.2839 
411 1 -0.474211 9.65802 25.0404 
3412 2 -3.32034 9.83178 -28.8388 
3413 1 -3.89254 9.18081 -29.2451 
6110 4 44.6216 52.9293 -28.1414 
3414 1 -2.89557 9.36298 -28.1205 
296 1 38.4521 -87.2466 26.0773 
1313 1 39.9532 5.0783 -28.0008 
1976 1 42.1864 98.0958 81.889 
1975 2 41.2496 98.2639 81.7875 
1977 1 40.9965 98.709 82.5962 
5367 1 38.7285 102.72 -0.633608 
1508 1 88.0404 0.394901 57.9246 
2971 2 89.4658 0.0764335 -22.7973 
842 1 40.8614 149.464 -51.8316 
841 2 41.669 149.826 -51.4663 
682 2 -8.25317 48.9653 -25.8459 
843 1 41.482 150.757 -51.345 
1965 1 90.1653 58.4458 85.3843 
1348 2 39.2161 47.2352 30.6617 
6046 3 -2.66309 7.0322 29.5026 
2456 1 -1.96264 -44.1602 29.9376 
5550 1 34.6959 93.9765 55.2235 
2455 2 -2.90294 -43.9978 29.862 
2076 1 80.5929 -45.3006 32.0208 
2074 2 80.5678 -44.3438 32.0091 
1396 2 40.869 -40.9012 -24.3737 
2075 1 80.2866 -44.1003 32.8911 
1507 2 87.3991 0.480671 57.2193 
5366 1 37.7583 103.732 -0.0622009 
1398 1 40.5133 -41.2706 -23.5655 
3957 1 -1.59509 5.46785 -53.8141 
3955 2 -1.9182 5.164 -52.9658 
790 2 39.153 -38.8824 2.41354 
4761 1 83.3699 -44.7256 30.163 
2370 1 -9.94828 98.3343 56.9036 
2457 1 -3.09018 -43.3509 30.5423 
1397 1 40.1932 -40.2957 -24.6786 
5365 2 38.6629 103.635 -0.35949 
4570 2 -2.05926 8.16471 81.2101 
1509 1 87.577 1.33971 56.8363 
2369 1 -10.6997 97.1161 57.3967 
4759 2 83.3259 -44.4093 31.0654 
2368 2 -10.3964 97.5459 56.5971 
4760 1 82.3894 -44.3259 31.2451 
1349 1 38.9767 48.1438 30.8446 
792 1 38.6523 -39.0286 3.21615 
791 1 38.5545 -38.4021 1.84144 
1350 1 40.114 47.2849 30.334 
4572 1 -1.8507 7.28456 80.8969 
3567 1 -10.6583 52.7399 0.165255 
264 1 -51.0163 2.89541 -53.9863 
2973 1 89.888 0.81047 -23.2437 
4571 1 -1.20741 8.56853 81.376 
3565 2 -11.0606 53.418 0.708021 
3566 1 -10.6338 53.3281 1.56004 
262 2 -51.5344 2.20684 -54.4031 
478 2 -10.3389 6.56099 57.3042 
457 2 43.3232 5.86026 85.8779 
263 1 -52.3403 2.16789 -53.8881 
2518 2 36.4199 -36.8591 0.868449 
2972 1 89.6671 0.210826 -21.8712 
479 1 -11.2023 6.7391 57.6772 
1016 1 86.0321 -93.2412 26.9093 
480 1 -9.77764 7.25095 57.6581 
5888 1 91.0098 57.6887 54.2003 
4417 2 45.3428 2.21808 30.4326 
4419 1 45.5739 2.57199 31.2914 
1964 1 89.119 58.3537 86.4745 
2520 1 35.5329 -37.2156 0.91678 
458 1 43.467 5.0356 86.3421 
684 1 -8.82473 48.1985 -25.805 
295 2 37.8313 -86.5651 26.3346 
1347 1 -0.645089 11.6614 2.26033 
2491 2 -8.01939 148.555 31.8557 
683 1 -8.80596 49.6922 -25.5593 
1378 2 45.2917 -39.4675 -51.2643 
2492 1 -7.8507 149.163 32.5751 
292 2 -0.441876 49.4731 -0.215807 
294 1 -0.313615 48.6458 0.248394 
3953 1 -101.981 10.4374 3.22253 
739 2 -4.77868 5.03951 5.76853 
955 2 -8.88235 57.7943 30.3232 
2519 1 36.5412 -36.4037 1.7016 
3956 1 -1.17626 4.69921 -52.5789 
3250 2 86.7491 11.6427 -23.605 
957 1 -8.49555 57.371 31.0896 
738 1 38.4792 2.82958 -21.6423 
2493 1 -8.01008 147.69 32.2656 
459 1 43.2277 6.51272 86.5718 
4941 1 -1.45533 50.0527 32.9365 
3252 1 87.6796 11.5184 -23.4181 
741 1 -3.93621 4.58547 5.75039 
2079 1 91.3036 146.236 31.9817 
5339 1 -49.5199 -135.096 -0.877749 
5794 2 26.7611 -118.748 -2.43677 
2643 1 23.5724 22.64 51.8235 
2527 2 -21.4588 16.7454 -83.2853 
5796 1 25.8687 -118.411 -2.51887 
5930 1 75.1599 -31.8723 51.9795 
4224 1 29.8721 17.2312 79.2699 
1843 2 117.609 19.2528 -2.22213 
5931 1 74.4031 -33.0447 51.3925 
5776 2 117.118 60.0823 -1.28425 
5777 1 117.541 60.8594 -1.64975 
5929 2 74.8295 -32.7444 52.1951 
5095 2 23.5681 113.03 24.2187 
2528 1 -22.0161 16.0677 -83.6678 
1845 1 116.656 19.3037 -2.15739 
5097 1 23.0551 113.337 24.9663 
1894 2 72.1511 -31.4789 -2.65767 
5038 2 119.883 64.7909 24.2822 
2529 1 -21.6253 17.5224 -83.819 
5040 1 119.147 65.3424 24.5492 
1896 1 71.3405 -30.9932 -2.50522 
5019 1 28.342 21.5733 -28.4393 
5018 1 29.8152 21.7228 -28.1244 
1844 1 117.897 20.1653 -2.25341 
2641 2 24.4722 22.9553 51.7392 
2699 1 73.8626 17.7435 26.178 
2034 1 73.9664 -24.8666 0.731523 
4372 2 161.938 -31.9173 59.5733 
1547 1 69.1023 63.2364 59.2614 
5181 1 -63.7749 -34.6759 54.6638 
5118 1 25.9691 20.5957 32.8827 
5961 1 73.4313 -24.1712 57.3363 
2033 1 72.9491 -23.9193 1.33114 
5837 1 -21.5951 21.3556 5.85146 
1322 1 -17.1481 15.2358 86.0614 
2264 1 29.913 -33.2246 4.44469 
5959 2 73.0875 -24.0236 58.2174 
1651 2 207.016 -119.81 0.222487 
378 1 71.7616 105.853 2.74768 
4373 1 162.071 -32.8626 59.5032 
2265 1 29.1651 -34.448 4.93033 
631 2 116.494 -28.8174 59.3744 
3185 1 27.1332 -27.6304 3.92391 
1652 1 206.088 -120.043 0.240149 
5461 2 69.3732 62.0419 -24.6363 
4262 1 -22.4744 -74.6459 2.69422 
4644 1 -17.1589 -79.4956 26.8201 
1323 1 -17.3716 16.3508 87.0607 
94 2 75.8592 16.3486 -26.0939 
2700 1 73.6492 18.6571 27.3661 
4263 1 -22.678 -75.8748 1.83385 
5017 2 28.9518 21.6975 -27.712 
4642 2 -17.9089 -79.2619 27.3671 
4326 1 -63.7663 -31.5277 -25.4636 
3276 1 75.2217 17.0437 31.005 
633 1 116.551 -27.8646 59.4455 
505 2 25.4119 64.1727 0.391879 
6008 3 25.5697 16.9225 30.012 
3275 1 74.389 18.2753 30.719 
3186 1 27.0023 -27.8036 2.42565 
5381 1 23.2003 64.3091 26.7634 
3184 2 27.1813 -28.289 3.231 
507 1 25.1641 64.0689 -0.526855 
3299 1 -111.374 -73.805 -80.5961 
3965 1 -61.5999 21.81 1.66425 
4324 2 -63.8932 -31.1895 -24.5772 
6124 4 29.7891 62.1758 3.72836 
3298 2 -110.472 -73.96 -80.3146 
4374 1 162.816 -31.5449 59.4884 
3300 1 -110.098 -73.0846 -80.2161 
1653 1 207.082 -119.045 0.794361 
4261 2 -22.3261 -75.5914 2.67768 
2032 2 73.4156 -24.7371 1.50358 
5180 1 -62.2995 -35.0151 54.6789 
4325 1 -63.0334 -31.2701 -24.1643 
5116 2 26.7855 20.4232 32.4138 
506 1 26.0863 64.852 0.38328 
95 1 75.1593 16.9494 -26.3497 
4643 1 -18.4446 -78.6965 26.8107 
5462 1 69.4638 62.0006 -25.5883 
721 2 69.0084 -33.5589 27.4196 
5117 1 27.1215 21.291 32.1897 
722 1 69.4203 -34.3932 27.6445 
3274 2 75.2273 17.9973 31.0881 
2698 2 73.8001 17.741 27.1331 
96 1 75.6093 16.0469 -25.2205 
2263 2 30.0481 -34.0977 4.81299 
1321 2 -17.7402 15.5212 86.7572 
3966 1 -60.9611 21.8275 3.03667 
4019 1 68.9881 -33.7837 32.8988 
5778 1 116.357 60.4222 -0.813846 
5972 1 -59.5696 -24.3542 -29.007 
5971 2 -60.1331 -25.1273 -29.0379 
4222 2 30.5245 16.6348 79.6374 
2540 1 79.1234 59.1467 -29.6538 
1699 2 33.4411 70.299 -1.68173 
5973 1 -60.0594 -25.4422 -29.9388 
1803 1 -13.907 64.2441 78.4071 
1802 1 -12.5281 64.8389 78.2155 
1992 1 122.02 60.3314 25.9548 
4559 1 77.0644 67.71 27.8842 
5563 2 -12.0632 -79.7507 31.9954 
4223 1 30.5703 16.8706 80.5639 
3964 2 -60.8176 21.5286 2.13871 
363 1 -14.2163 18.3388 -23.4309 
361 2 -13.4015 17.8422 -23.5068 
1818 1 76.959 15.1032 -78.0871 
3533 1 -13.0024 -29.6818 26.7444 
2401 2 31.5373 16.2563 86.9651 
5565 1 -12.289 -79.0891 31.3415 
1990 2 122.632 60.068 26.6417 
2390 1 31.8112 19.6537 59.3088 
3807 1 33.8975 114.53 58.354 
4185 1 -58.4368 69.7702 31.261 
3532 2 -12.5302 -28.8503 26.7006 
1700 1 33.573 70.3137 -0.733768 
2403 1 32.0001 16.6678 86.2353 
1991 1 123.271 60.7803 26.6802 
2389 2 31.0673 19.4787 59.8852 
2653 2 -11.8042 21.1828 83.2541 
2654 1 -12.2458 21.8915 83.722 
2655 1 -12.3776 20.9913 82.512 
4558 2 77.4925 67.1272 27.257 
2391 1 30.5465 18.8282 59.4142 
362 1 -13.5358 17.2753 -24.2662 
3534 1 -13.1905 -28.1883 26.9054 
1816 2 77.8573 14.9792 -78.3937 
3806 1 33.8282 114.651 59.8615 
2891 1 79.6024 13.1304 28.2981 
2402 1 30.8416 15.7458 86.5509 
2890 2 79.7313 13.9488 27.8186 
1737 1 79.451 109.467 30.0541 
3660 1 34.0156 -28.4601 4.01847 
1817 1 77.825 14.1754 -78.9125 
4560 1 77.3823 67.562 26.4114 
3805 2 33.3565 114.881 59.0612 
5564 1 -12.853 -79.8403 32.5287 
429 1 -45.7974 20.8058 -2.22279 
671 1 133.522 23.0002 -29.8307 
2757 1 42.6742 -34.7975 -56.2421 
1654 2 -2.26286 23.3363 106.904 
427 2 -45.8836 21.3962 -1.47431 
4913 1 -8.40953 15.5108 -1.37026 
348 1 126.706 -72.6998 25.7056 
428 1 -46.5658 22.0152 -1.73421 
6039 3 85.5093 -35.0693 -28.2206 
5813 1 88.0104 17.694 -2.23052 
3990 1 -4.16906 15.3899 -56.82 
759 1 81.0205 12.8107 25.3015 
231 1 -101.515 63.7699 -29.0752 
757 2 81.3815 13.5398 25.8058 
229 2 -102.245 64.2682 -29.4426 
347 1 125.905 -71.5842 25.0675 
4650 1 85.5806 65.6746 79.3896 
230 1 -102.676 64.6573 -28.682 
2755 2 41.9939 -34.1245 -56.2192 
3099 1 38.1991 -26.9535 24.4688 
4914 1 -8.01321 16.5548 -2.39247 
3097 2 38.8138 -26.6675 25.1446 
4648 2 86.5215 65.5133 79.4601 
2097 1 -52.9597 -33.0928 -2.372 
4912 2 -8.54665 16.4279 -1.6079 
5812 2 88.8014 17.2262 -2.49816 
346 2 126.501 -72.304 24.8585 
3989 1 -5.63375 15.018 -56.7292 
3098 1 38.6243 -25.7368 25.263 
2756 1 42.2751 -33.477 -56.8657 
3988 2 -4.93835 15.4758 -56.2569 
2096 1 -54.0354 -33.3366 -1.33505 
5814 1 88.8366 16.464 -1.92015 
2095 2 -53.0855 -33.3259 -1.45217 
4649 1 86.7666 65.8886 80.3059 
1097 1 84.6436 112.701 1.51934 
3148 2 45.0971 69.9525 30.0242 
5513 1 -1.19382 -24.0145 -22.3949 
5979 1 -7.64626 14.2032 3.26801 
2388 1 34.8706 64.2119 -52.2349 
1890 1 80.7876 23.2977 58.1754 
2983 2 44.3953 -27.6009 54.4388 
714 1 37.6212 117.017 30.6596 
4420 2 37.4332 -34.81 -21.551 
5588 1 -6.57574 62.855 -25.173 
713 1 38.5626 115.865 30.3802 
3251 1 86.3963 12.0438 -22.8106 
5184 1 37.6632 65.7825 -27.8501 
2107 2 -6.86434 -29.3873 31.7949 
1963 2 89.2427 58.6255 85.5651 
1889 1 81.6012 23.2551 59.4513 
712 2 38.525 116.821 30.4127 
4146 1 39.2471 112.772 5.52428 
5037 1 86.8995 -24.6443 55.9083 
2984 1 45.1096 -27.1475 54.8866 
2981 1 126.579 -32.2117 -21.9045 
5206 2 37.7385 -73.1491 3.84434 
4144 2 39.5451 113.668 5.68119 
2980 2 127.268 -31.5888 -22.1362 
1345 2 -1.11737 11.7947 1.43849 
1736 1 80.8694 109.112 30.4465 
3603 1 -2.29769 -27.4443 3.79508 
3601 2 -1.59735 -26.8106 3.63955 
3659 1 35.202 -28.1916 3.11723 
3150 1 45.0265 69.4015 29.2446 
5183 1 37.8956 64.3803 -27.3289 
983 1 41.8143 18.138 -104.089 
2517 1 43.6153 110.647 4.64092 
5512 2 -1.95914 -24.0842 -21.8242 
1096 2 85.0739 113.404 2.00694 
5547 1 -1.81638 63.7709 27.556 
1216 2 -5.93462 12.8763 -26.035 
1217 1 -5.2206 12.5698 -25.476 
544 2 40.4975 15.6012 54.8396 
2515 2 43.9891 109.78 4.48001 
5545 2 -1.32271 62.9509 27.5652 
3478 2 37.4734 23.009 53.8607 
2516 1 44.8658 109.957 4.13872 
3480 1 36.9952 22.1819 53.801 
3346 2 -55.362 -73.0288 0.406807 
4145 1 38.848 114.218 5.32489 
3658 2 34.8928 -28.0771 4.01586 
2387 1 34.391 65.0135 -53.4262 
4422 1 37.6006 -34.3574 -22.3777 
5977 2 -7.62986 13.2468 3.30154 
1346 1 -1.66648 12.5621 1.59898 
2386 2 35.0375 65.0197 -52.7204 
545 1 41.1206 16.3269 54.8753 
546 1 40.2662 15.5287 53.9136 
5207 1 37.2345 -73.9083 4.1373 
1218 1 -5.778 13.8157 -26.1309 
5978 1 -7.30336 12.982 2.44157 
3347 1 -55.8814 -72.6365 1.1086 
33 1 42.9328 18.4558 54.7436 
982 2 41.8507 18.6216 -104.915 
5589 1 -8.08235 62.9701 -25.2667 
5208 1 37.259 -72.3955 4.1883 
780 1 -2.4917 -33.6368 57.5517 
1098 1 84.3636 113.838 2.47942 
3348 1 -55.3595 -73.9653 0.604938 
5587 2 -7.3661 62.9036 -24.6352 
5035 2 87.1757 -24.7591 56.8176 
31 2 42.1821 17.9475 55.0508 
2892 1 79.979 14.5841 28.4903 
984 1 40.9476 18.8975 -105.071 
5906 1 -48.0009 61.4962 32.7228 
2985 1 44.3809 -27.2184 53.5614 
5546 1 -1.84791 62.3606 28.1055 
779 1 -1.99046 -32.2345 57.2795 
758 1 80.6642 13.8152 26.3766 
778 2 -2.28394 -33.0322 56.8393 
5036 1 86.9995 -25.6805 57.0075 
1735 2 80.3614 109.57 29.7771 
3602 1 -1.70419 -26.1598 4.33327 
32 1 42.1183 18.1535 55.9834 
956 1 -8.51002 58.6761 30.3226 
1888 2 81.6296 23.0084 58.5269 
2108 1 -7.22477 -29.6305 30.9421 
5504 1 39.0584 -71.2592 27.1599 
1656 1 -2.92425 23.3009 107.595 
5182 2 37.8331 65.2924 -27.0456 
5503 2 39.8467 -71.732 27.4267 
5505 1 39.5597 -72.6396 27.5272 
2109 1 -7.34482 -29.9283 32.4216 
2982 1 127.511 -31.1805 -21.3055 
1704 1 26.9508 -65.3683 -19.0824 
4511 1 -17.7074 -20.3868 38.621 
4726 2 -21.4266 -66.9914 38.4107 
4727 1 -21.3435 -66.1267 38.0088 
4510 2 -17.955 -20.5829 37.7174 
5292 1 22.9931 -14.6583 -17.2788 
5290 2 23.754 -14.9809 -16.7958 
2023 2 -21.7132 71.0732 65.7692 
2025 1 -21.8598 72.019 65.7843 
5291 1 24.241 -14.1913 -16.5599 
5016 1 70.0239 -108.681 34.2576 
5014 2 70.809 -108.536 34.7854 
5015 1 70.7035 -107.65 35.1334 
813 1 -16.8955 78.4568 114.516 
5326 2 115.632 29.1377 36.9489 
6029 3 -18.4275 31.2529 -18.3839 
3973 2 27.191 -61.2412 10.7559 
3975 1 27.9816 -60.8533 11.131 
4529 1 68.6239 -70.2525 64.4642 
1703 1 27.2206 -65.543 -17.603 
6050 3 26.3289 -22.6642 -16.7084 
1702 2 26.951 -64.8928 -18.2516 
5327 1 116.432 29.3565 36.4711 
4123 2 75.5683 74.0196 8.75196 
5328 1 115.141 29.9589 36.9846 
4878 1 71.7844 33.7159 91.6701 
3974 1 26.8125 -61.7531 11.4708 
482 1 25.6111 118.072 -19.8017 
4125 1 75.3249 73.9696 7.82758 
481 2 25.7461 117.551 -19.01 
573 1 28.2073 75.9614 12.3014 
2547 1 29.776 126.605 -42.4566 
2807 1 -22.608 28.558 63.0413 
4512 1 -17.1316 -20.5504 37.2305 
4629 1 25.9061 81.5799 33.6513 
4728 1 -20.8224 -66.9702 39.1528 
4544 1 -20.6293 -58.9692 8.89627 
4543 2 -20.7564 -58.7707 7.96855 
4014 1 30.0059 118.222 36.9367 
3138 1 75.9644 -15.1028 -17.665 
3137 1 75.7665 -16.0833 -18.8014 
811 2 -17.827 78.3197 114.688 
1307 1 -22.2962 -105.542 7.29746 
2830 2 74.6842 118.647 33.54 
4877 1 71.2099 34.93 92.3685 
4876 2 71.01 34.2779 91.6969 
1446 1 30.1947 33.7892 33.4328 
571 2 28.1618 76.9081 12.1676 
678 1 25.0795 -16.2249 12.2667 
2336 1 70.6655 28.3757 33.9512 
2335 2 71.4539 28.1517 33.4567 
2832 1 75.1342 117.822 33.3592 
3136 2 75.4223 -15.2681 -18.4364 
1937 1 28.3457 24.2336 8.14804 
572 1 27.3429 77.1708 12.588 
2024 1 -21.441 70.8582 66.6613 
1936 2 28.4005 23.9225 9.05163 
2545 2 29.2645 127.41 -42.3723 
1445 1 30.2819 33.5843 34.9302 
2337 1 71.2313 27.3368 33.0064 
1729 2 25.6477 -20.1646 67.8538 
727 2 -62.8496 -19.5019 39.9983 
3757 2 30.0465 77.7879 13.7269 
3477 1 29.2202 29.6321 -12.2228 
1731 1 26.477 -20.1195 68.3298 
1752 1 74.3213 25.5794 14.7957 
1750 2 74.6835 24.7692 14.437 
5260 2 24.0304 -18.1871 68.8191 
5477 1 -22.5779 -20.4308 14.8545 
1730 1 25.055 -19.6004 68.3503 
5446 2 -67.636 -61.6951 41.7833 
3758 1 29.354 77.7755 13.0661 
676 2 25.7037 -15.7612 12.825 
5478 1 -22.4391 -21.8367 14.3103 
3490 2 -16.6566 34.3367 14.5154 
3492 1 -17.3042 33.7272 14.8694 
729 1 -62.0265 -19.9895 39.9648 
6142 4 24.291 23.7227 14.4018 
1751 1 75.5892 24.9876 14.2178 
677 1 25.3523 -15.8585 13.7101 
728 1 -63.2126 -19.703 40.8609 
4068 1 27.1963 -22.6575 -13.8385 
4066 2 26.4756 -23.2002 -14.1582 
4067 1 25.795 -23.1128 -13.4908 
2030 1 69.7387 34.3244 41.4542 
2029 2 70.5356 34.7678 41.7451 
2546 1 29.279 127.606 -41.4356 
1876 2 33.4201 -13.6753 -44.8398 
3049 2 125.492 -18.377 -42.2246 
1877 1 33.2108 -13.2542 -45.6735 
3051 1 124.937 -17.7082 -41.824 
3050 1 124.915 -18.8324 -42.8378 
4489 2 77.13 28.1856 -16.2961 
173 1 -59.2636 126.068 64.5774 
2538 1 -11.5952 -67.8405 35.7841 
4491 1 77.1435 29.0826 -15.9624 
172 2 -60.0021 125.474 64.7134 
174 1 -59.6935 124.854 65.3747 
1355 1 77.6568 -69.2971 -18.2977 
4013 1 30.8658 118.489 38.1536 
3851 1 -13.451 34.539 -20.1047 
1356 1 78.8493 -69.7832 -19.0937 
3850 2 -12.5067 34.6757 -20.0281 
4012 2 30.9062 118.412 37.2004 
1354 2 78.1232 -69.1601 -19.1223 
2406 1 -11.7529 -23.3177 39.3347 
4490 1 76.4654 28.1957 -16.9848 
4683 1 31.3622 73.2239 11.7235 
5807 1 -13.3784 72.457 -20.7918 
1444 2 30.4774 34.2184 34.2403 
4681 2 31.0943 72.8255 12.5516 
6116 4 77.754 -16.8167 12.4829 
5114 1 -60.0393 -18.8051 -48.099 
4124 1 76.3512 73.4736 8.82384 
4954 2 32.893 -15.0918 41.6217 
3032 1 33.8944 75.0813 14.5655 
3140 1 31.8875 -65.1869 69.0149 
3139 2 31.7462 -65.779 68.2763 
3947 1 -58.2808 -13.1728 -12.3516 
3946 2 -58.7447 -12.3481 -12.4961 
4955 1 33.8008 -15.2331 41.8904 
981 1 79.5801 71.7021 40.9409 
3141 1 31.6888 -65.2027 67.5142 
979 2 79.2053 71.9614 41.7826 
3759 1 30.7776 77.3257 13.317 
4956 1 32.722 -15.7827 40.9816 
980 1 79.2398 72.918 41.7762 
4682 1 31.4491 73.4074 13.2237 
6001 3 36.5428 75.702 11.4645 
638 1 44.174 29.8085 35.4079 
637 2 44.4639 30.5992 35.8628 
673 2 -5.08134 -17.0355 62.5123 
203 1 -50.4974 33.1251 -46.6062 
202 2 -50.338 33.9147 -47.1233 
674 1 -4.43029 -17.7015 62.7332 
5534 1 90.6793 120.922 65.869 
1878 1 34.3632 -13.5483 -44.7369 
1414 2 35.2271 126.208 7.40398 
416 1 -1.93486 34.9076 -18.2346 
1360 2 37.2398 74.3189 36.5421 
914 1 -6.9264 24.9037 8.64275 
675 1 -4.93681 -16.8575 61.583 
5535 1 89.7498 119.882 65.2808 
639 1 44.163 31.3191 35.3083 
1758 1 -53.652 25.129 10.5517 
5533 2 89.8331 120.823 65.4326 
1361 1 37.3568 74.7428 35.6918 
1362 1 38.0173 73.7703 36.6458 
1628 1 84.6774 33.9951 -17.3848 
3706 2 -4.90486 27.5124 -16.2189 
1756 2 -54.5075 24.7722 10.7903 
4746 1 39.1356 -110.202 63.2232 
3387 1 -7.87603 33.8429 -19.227 
3708 1 -4.29566 27.5749 -16.9545 
3284 1 -5.6537 -20.5507 33.9539 
2068 2 43.029 26.0917 60.6442 
3707 1 -5.33373 26.6644 -16.3338 
1757 1 -55.0774 25.0045 10.0572 
1536 1 88.1247 31.8264 9.33411 
1535 1 86.7649 31.1611 9.32149 
2069 1 43.6802 25.4843 60.9954 
204 1 -50.7043 33.7153 -47.9849 
2536 2 -10.7498 -68.2515 35.6035 
6093 4 39.1422 25.7859 9.8862 
4350 1 -2.92872 -23.3837 -19.1851 
3285 1 -6.99104 -21.1256 33.5381 
1534 2 87.3289 31.7205 9.85546 
1412 1 -47.9055 70.8436 64.512 
6095 4 -1.16433 23.8003 7.40779 
4686 1 42.6953 -13.7992 6.81226 
1051 2 -49.0912 34.4794 37.2378 
1416 1 34.5926 126.872 7.13445 
3356 1 36.9399 70.703 7.09411 
1872 1 -11.3051 123.38 33.2466 
4744 2 38.7436 -109.63 63.8827 
1664 1 -47.9987 74.7364 36.8276 
3386 1 -8.10428 35.0068 -20.1678 
1572 1 87.1212 25.0316 35.523 
1571 1 86.0851 26.0564 35.9332 
1413 1 -47.016 71.5067 63.4819 
4684 2 43.1045 -14.5772 7.19114 
877 2 35.9117 123.897 90.774 
1411 2 -47.2522 71.5356 64.4091 
878 1 35.1761 124.225 90.2562 
1053 1 -48.6048 34.3697 38.0548 
4745 1 38.9233 -110.066 64.7159 
1052 1 -49.6556 33.7078 37.1891 
1627 2 84.5926 33.4555 -18.1709 
1570 2 86.8891 25.9549 35.4237 
1629 1 84.4018 32.5778 -17.8401 
1665 1 -48.8417 74.1858 35.697 
4128 1 -2.01217 27.9454 -20.8076 
2537 1 -10.1546 -67.5181 35.4485 
2405 1 -10.2701 -23.0605 39.1698 
3385 2 -8.43834 34.1384 -19.9431 
5520 1 39.3586 122.256 10.9581 
1663 2 -48.6706 74.9862 36.1932 
417 1 -0.573988 34.3624 -17.8568 
3283 2 -6.22143 -20.673 33.193 
5268 1 -3.13597 -16.2721 11.4988 
2421 1 -8.69492 -20.7926 39.422 
1871 1 -10.0714 124.173 33.6215 
1415 1 36.0783 126.633 7.30023 
2070 1 42.1973 25.7891 61.0088 
879 1 36.6604 124.418 90.4828 
1377 1 40.2512 24.8295 -15.973 
84 1 83.8069 -65.2705 33.4631 
3357 1 35.5094 71.0711 7.42598 
1375 2 40.8552 24.4198 -15.3537 
316 2 45.5307 -59.731 37.8672 
317 1 45.0614 -59.5244 38.6755 
82 2 83.4161 -65.1117 34.3224 
83 1 82.526 -64.8166 34.1304 
913 2 -7.19014 24.3408 7.91488 
4685 1 43.0616 -15.2336 6.4958 
4126 2 -1.67262 28.8331 -20.6934 
5518 2 38.8661 122.786 11.5848 
5266 2 -2.57002 -16.9344 11.8954 
6012 3 -0.134863 -13.3671 6.48708 
4814 1 -5.64245 81.2156 93.364 
415 2 -1.04777 34.7856 -18.5728 
1376 1 41.3372 23.7791 -15.8767 
2766 1 -8.49999 -13.1972 66.2232 
4813 2 -6.23334 80.8038 92.7336 
1870 2 -10.5015 123.33 33.7643 
4815 1 -5.91007 79.9065 92.6524 
3355 2 36.0333 70.4494 6.92077 
4348 2 -3.78538 -23.377 -18.7581 
5267 1 -1.78417 -16.9369 11.3489 
5202 1 36.2508 125.573 39.6977 
5849 1 35.2051 -11.8993 12.3583 
915 1 -6.51638 23.6617 7.88028 
5201 1 35.1223 124.594 39.4526 
5519 1 39.2582 122.58 12.4334 
1711 2 -5.63667 28.0418 -13.0181 
1713 1 -5.087 28.331 -12.2898 
1712 1 -6.30003 27.4843 -12.6115 
5669 1 -48.716 25.0172 68.7198 
5359 2 -2.31249 -59.0978 13.0293 
3033 1 35.1804 74.3815 14.1805 
2765 1 -8.74254 -13.2045 67.7175 
5668 2 -48.882 25.542 67.9366 
1503 1 -10.1525 -15.847 95.8143 
325 2 -8.44876 23.483 -12.5257 
4409 1 -1.45037 79.6471 14.7487 
5638 2 -2.66835 -17.9396 14.7682 
1410 1 -4.79012 34.927 -13.0325 
4408 2 -1.31634 78.958 14.098 
5360 1 -2.29859 -59.5111 13.8926 
2764 2 -9.14311 -13.453 66.8844 
4410 1 -1.97103 78.2938 14.3135 
1367 1 40.0768 23.4455 12.8439 
5361 1 -3.18611 -58.7125 12.9617 
6048 3 42.2378 -19.0135 -14.3001 
2404 2 -11.0076 -22.889 39.7555 
2420 1 -8.45082 -20.0281 40.7056 
5670 1 -49.1669 24.9078 67.2787 
2243 1 -91.4156 32.1923 13.0022 
2419 2 -8.94293 -19.9926 39.8854 
5200 2 36.0029 124.656 39.8224 
3705 1 24.183 93.5343 33.7102 
976 2 25.4089 36.0407 12.4348 
4279 2 -15.3984 -56.9113 -74.7238 
5099 1 69.147 93.5163 36.7187 
1767 1 26.0759 39.823 39.5575 
679 2 -68.4608 92.8589 35.3421 
3351 1 -21.6259 181.463 -20.9678 
2627 1 29.7614 129.431 37.9235 
4658 1 118.489 42.7085 -43.3404 
134 1 -18.5753 89.1908 7.25953 
3630 1 29.14 89.3844 6.30027 
4861 2 28.8563 -4.46115 39.1068 
133 2 -19.0697 88.4994 7.69972 
1644 1 27.9876 -94.2009 37.8488 
2630 1 116.437 45.4706 66.0753 
3350 1 -20.2471 181.525 -20.3458 
5570 1 73.3769 93.5549 33.3922 
3629 1 29.3493 90.8169 6.7431 
1114 2 70.0443 -5.0619 36.4972 
3290 1 26.1141 86.3976 10.024 
786 1 -15.6411 37.9599 -43.3183 
3291 1 25.1101 87.1986 9.22245 
4051 2 30.2124 -1.99538 35.3347 
785 1 -15.7602 39.4683 -43.2694 
2631 1 115.25 44.7522 66.6804 
93 1 22.959 37.8471 65.2248 
2623 2 72.9207 40.1953 65.5474 
4052 1 29.4314 -1.52788 35.6309 
3648 1 23.5245 129.753 -42.5612 
2625 1 73.3212 40.9265 66.0176 
1643 1 27.5698 -93.9915 36.4088 
1295 1 25.1332 38.118 34.1397 
4862 1 29.5103 -5.01453 38.68 
4657 2 117.936 43.1299 -43.9982 
2624 1 73.6602 39.7184 65.1706 
4545 1 -20.6329 -57.8235 7.90669 
4497 1 70.4242 43.3515 33.3484 
3289 2 25.3574 86.3012 9.44565 
1115 1 69.4813 -4.54444 35.9214 
3628 2 28.7935 90.2696 6.18822 
91 2 23.3309 38.7291 65.2261 
92 1 24.0444 38.6896 64.5892 
135 1 -19.2263 88.8399 8.58051 
784 2 -16.2208 38.6644 -43.0289 
1642 2 27.2755 -94.3771 37.234 
1296 1 25.3001 38.1519 35.644 
1116 1 70.7533 -4.46589 36.7385 
1294 2 25.279 37.5524 34.8981 
4495 2 69.4906 43.4166 33.5495 
4659 1 118.207 44.048 -43.9866 
4187 1 -63.0017 40.1746 60.9763 
3349 2 -20.7457 181.093 -21.0399 
4496 1 69.189 44.1734 33.047 
4863 1 29.3662 -3.77364 39.5352 
2628 1 30.3194 129.607 36.5272 
4186 2 -63.1542 40.4797 60.0819 
1766 1 24.6331 39.4034 39.7421 
5069 1 -17.221 -8.57387 39.7535 
2750 1 -66.4174 -50.5386 13.1329 
3491 1 -17.1244 35.1686 14.4431 
1084 2 75.7265 44.0969 40.401 
468 1 29.184 -3.53196 41.5849 
2751 1 -65.7694 -51.3626 14.2251 
977 1 25.2021 35.4762 13.1797 
1765 2 25.5103 39.2774 40.1039 
1046 1 25.0036 -48.8776 -12.5101 
1086 1 75.372 44.9858 40.3798 
373 2 27.0174 -5.40891 -12.6425 
3227 1 23.2813 88.4414 40.7223 
5070 1 -18.55 -8.35688 40.4453 
2749 2 -66.5848 -51.2649 13.7334 
374 1 27.4485 -5.56495 -13.4828 
5068 2 -17.7831 -8.92967 40.4418 
978 1 26.13 36.5897 12.7427 
2629 2 116.183 44.9192 66.8151 
4366 2 78.7707 84.1596 37.6169 
5051 1 -58.9918 45.2333 65.4262 
4368 1 79.3451 83.73 38.2508 
5384 1 -11.7257 40.9113 33.7314 
4281 1 -14.8848 -56.2434 -74.2695 
5801 1 31.6529 41.141 10.6266 
4053 1 30.9368 -1.56309 35.7869 
3852 1 -12.3091 35.3531 -20.6748 
4367 1 78.2066 83.4585 37.2906 
4582 2 79.5389 86.1832 9.04921 
1830 1 31.1971 -6.95297 89.0047 
946 2 123.809 45.6679 9.66103 
1829 1 32.0546 -7.95826 89.7436 
4211 1 33.3124 -51.3017 -17.1804 
5131 2 30.9132 -4.90158 34.9569 
6085 4 -12.4878 -5.7566 38.0215 
1828 2 31.2648 -7.88595 89.2077 
5132 1 31.3238 -4.84201 34.0943 
5800 2 30.7154 41.195 10.441 
5050 2 -58.8452 44.637 66.1605 
948 1 124.206 46.4375 9.25374 
5052 1 -58.1928 44.0151 65.838 
5802 1 30.6675 41.4779 9.52776 
947 1 124.476 44.9852 9.5858 
4583 1 79.3136 86.8745 9.67172 
4210 2 33.5126 -50.558 -17.7488 
4212 1 32.8766 -50.6224 -18.4613 
3014 1 -13.2389 39.6864 -14.8878 
4584 1 79.2107 85.38 9.45346 
4280 1 -15.2136 -57.7211 -74.248 
4199 1 -14.419 36.4364 39.3401 
5133 1 30.5443 -4.03129 35.1077 
2626 2 30.4818 129.838 37.442 
3948 1 -58.0947 -11.671 -12.3085 
3015 1 -13.6536 38.338 -14.3384 
3013 2 -13.3857 39.216 -14.0671 
1676 1 -103.114 85.6015 -40.7681 
4198 2 -13.8313 36.598 40.0781 
4200 1 -13.7292 35.7426 40.4954 
1673 1 -13.6453 41.7029 14.6961 
1085 1 76.6206 44.1871 40.0713 
3513 1 32.0923 -56.1134 14.7337 
1672 2 -14.2241 40.9647 14.8867 
1674 1 -14.0241 40.3212 14.2069 
4725 1 -46.4188 40.3308 -19.6654 
5567 1 39.4365 -0.612824 36.6263 
1153 2 -3.1226 -54.3289 141.575 
3083 1 41.5552 -6.09241 36.2215 
5008 2 129.45 129.899 -16.4821 
1709 1 82.0724 91.4636 6.05119 
5848 2 34.8774 -11.0022 12.421 
1240 2 38.4524 -0.730686 87.2067 
3944 1 -52.1848 -5.43079 65.9184 
3084 1 40.4597 -5.17804 35.7159 
6101 4 -3.29799 -7.15789 37.6545 
4229 1 -57.096 88.2887 12.2941 
4265 1 -52.0255 35.6802 -73.1088 
4266 1 -50.5375 35.9031 -72.9418 
119 1 -55.2557 46.8772 -46.4797 
3943 2 -51.8553 -4.53629 65.8314 
4264 2 -51.3892 36.2328 -72.655 
6054 3 90.9471 37.2561 8.23826 
5395 2 37.9935 -8.64739 7.37859 
5383 2 -10.8219 41.2255 33.7042 
4607 1 -0.362627 -9.60565 65.6645 
3925 2 -55.4057 41.1976 -44.3509 
5617 2 44.0953 -56.4069 6.21425 
3168 1 -7.92537 -4.13538 -72.3026 
817 2 39.0316 -3.52277 6.21621 
4151 1 -0.809042 43.5309 33.2865 
1994 1 -52.6863 -7.4968 65.2689 
1710 1 81.9585 89.982 6.34085 
3916 2 -1.06032 -6.75302 9.1987 
537 1 44.9173 42.1593 12.1941 
5598 1 42.0028 -50.0209 64.1825 
3918 1 -0.566973 -6.25297 9.84892 
3166 2 -6.99318 -4.33074 -72.2074 
1268 1 -48.8791 39.2663 12.0174 
3107 1 43.6407 45.8318 10.367 
2950 2 -10.4203 -48.3469 11.3702 
4980 1 -1.91981 -3.28264 -18.5687 
5568 1 40.8303 -0.0890675 36.3524 
3917 1 -1.90626 -6.91884 9.61478 
3167 1 -6.78603 -4.07917 -71.3073 
5396 1 37.7076 -9.09333 6.58132 
4381 2 -9.18461 84.9257 91.3886 
3082 2 41.3561 -5.45883 35.5321 
4979 1 -0.487632 -3.77329 -18.5643 
818 1 38.5228 -3.76008 6.99144 
1995 1 -54.0269 -6.93439 65.6912 
4505 1 42.9479 38.267 -17.2821 
6005 3 -9.44988 39.6765 35.2794 
4606 2 -0.70857 -8.93139 66.2492 
3388 2 -51.4797 38.5298 37.2518 
1064 1 -3.34255 41.1212 65.478 
1065 1 -2.7962 42.4582 65.9317 
3927 1 -55.8264 40.6815 -43.6633 
3926 1 -55.9994 41.9345 -44.4951 
4382 1 -9.9126 84.3044 91.3704 
118 2 -55.8384 46.2224 -46.0953 
4978 2 -1.23364 -3.62051 -19.1443 
1993 2 -53.1194 -7.02646 65.9812 
3108 1 43.0399 46.2106 11.7039 
5596 2 42.3405 -49.3757 63.5614 
3945 1 -50.9028 -4.62853 65.8497 
3874 2 127.418 43.7179 -18.4524 
819 1 39.0474 -2.56573 6.22321 
5397 1 38.9473 -8.72745 7.36951 
3876 1 127.29 44.6391 -18.6794 
6061 3 -2.81448 41.6719 33.7675 
2951 1 -10.9269 -47.5382 11.4455 
3875 1 126.532 43.3778 -18.3239 
4608 1 -1.45222 -8.56036 65.7743 
5597 1 41.5878 -48.8199 63.3597 
3106 2 43.5146 46.575 10.9569 
3390 1 -51.3544 37.9129 36.5307 
5009 1 130.204 129.942 -17.0703 
4383 1 -8.44332 84.4171 91.7174 
5566 2 40.3096 -0.892228 36.3506 
4504 2 43.2434 37.4047 -17.5741 
4506 1 42.4729 36.8438 -17.484 
1063 2 -3.61433 41.9757 65.8129 
3389 1 -50.6367 38.9754 37.3356 
2952 1 -10.0502 -48.3168 10.488 
5010 1 129.766 129.412 -15.7212 
1154 1 -2.33807 -54.8749 141.524 
535 2 44.4889 42.9928 12.3892 
5618 1 43.4041 -57.0508 6.05992 
4444 2 -10.2593 38.0523 -21.0488 
4723 2 -46.1434 40.3845 -20.5806 
120 1 -56.5211 46.7339 -45.6612 
536 1 45.1189 43.6574 12.1105 
344 1 39.0762 85.4786 12.6034 
4445 1 -9.96627 37.1479 -21.1606 
1408 2 -4.86091 35.2985 -13.9118 
1409 1 -5.21975 36.1751 -13.7737 
200 1 40.2894 44.8236 14.4978 
5850 1 34.8273 -10.8301 13.3612 
1544 1 -7.39392 89.6337 13.1593 
1677 1 -102.049 84.6704 -41.3065 
6023 3 81.2699 44.1817 13.3015 
1269 1 -48.043 38.7092 13.1499 
798 1 37.5515 -6.89524 13.8725 
1545 1 -7.28629 91.013 13.774 
5221 2 -2.21122 -1.01847 40.5794 
199 2 39.4409 45.1321 14.8158 
1267 2 -48.9495 38.8488 12.8758 
4228 2 -56.7678 88.8115 13.0257 
41 1 -54.3103 92.9296 14.7929 
796 2 36.851 -6.93428 14.5237 
5222 1 -1.29904 -0.878902 40.8337 
40 2 -54.8095 93.2229 14.0307 
345 1 40.478 85.0482 12.9797 
1675 2 -102.166 85.4782 -40.8066 
5223 1 -2.29665 -1.96887 40.5041 
1543 2 -7.92122 90.3864 13.4268 
5844 1 41.5919 86.5177 14.2216 
797 1 36.1578 -7.44064 14.1003 
4230 1 -56.7348 88.2002 13.7616 
343 2 39.5559 84.858 13.152 
5585 1 43.8992 -5.08694 14.274 
3360 1 43.8026 -57.0786 14.4673 
6094 4 27.6125 -19.9493 15.2696 
3476 1 28.4596 28.443 -11.6758 
3475 2 28.9088 29.2437 -11.4053 
5649 1 -17.7833 78.9162 43.774 
2773 2 -21.8051 73.1322 -8.43114 
2775 1 -21.1106 73.4901 -8.98416 
2774 1 -22.0104 72.2834 -8.82289 
1105 2 -17.4055 -15.2548 18.664 
2250 1 -61.0778 -12.308 -9.04818 
3125 1 -20.212 118.026 15.4467 
5261 1 23.3747 -18.344 69.4986 
5262 1 24.8019 -17.8812 69.2961 
3960 1 26.3223 122.06 44.4607 
3958 2 26.0133 121.16 44.5644 
3126 1 -19.3971 119.286 15.6473 
5447 1 -67.1357 -61.3459 42.5209 
5926 2 26.1995 29.7587 42.7147 
3959 1 26.5945 120.641 44.0083 
1838 1 -20.8926 32.0817 -36.5741 
5927 1 26.2955 30.7042 42.8288 
6111 4 24.9827 -13.5261 16.8114 
302 1 -22.2328 -111.632 -36.5293 
5928 1 27.0683 29.4601 42.4459 
4550 1 -22.4881 80.4117 44.1815 
3124 2 -19.4915 118.387 15.963 
1773 1 23.8948 70.6679 43.3084 
5648 1 -18.9509 79.8486 43.531 
5647 2 -18.1261 79.5523 43.1462 
2248 2 -61.025 -12.2235 -10.0002 
1107 1 -16.5599 -15.2316 19.112 
371 1 -61.4594 74.6706 -10.3116 
1839 1 -20.4338 31.4379 -35.2829 
1499 1 29.3392 23.4927 97.2195 
6069 3 27.2558 70.5961 17.9576 
1771 2 23.3286 71.0255 43.9923 
4037 1 -21.4681 34.7828 -36.2202 
5874 1 71.739 81.5094 -9.96865 
1837 2 -21.1636 31.4562 -35.902 
2031 1 70.7583 34.3423 42.5731 
1100 1 29.967 30.1699 -10.4876 
4117 2 28.4711 -21.699 19.2827 
1106 1 -17.8548 -16.0125 19.0385 
4119 1 29.1677 -21.2924 18.7672 
2434 2 -19.784 78.5726 49.2105 
2435 1 -20.075 78.2947 50.0789 
4026 1 -15.3239 33.4268 -5.14309 
2209 2 -15.712 30.2131 -32.9406 
4118 1 28.6225 -21.3908 20.1761 
3325 2 115.061 32.4054 -6.46718 
5789 1 28.4355 23.5057 50.0736 
2210 1 -16.0889 30.8856 -32.3732 
5788 2 28.639 24.2739 50.6071 
2071 2 -16.1898 -58.8781 19.675 
5790 1 27.7861 24.5968 50.8979 
717 1 74.3854 -14.8315 50.8758 
1056 1 73.1507 29.3977 20.8644 
2436 1 -20.5781 78.8921 48.7821 
3605 1 -15.7153 -11.7341 77.986 
102 1 120.176 27.7478 22.7411 
3604 2 -15.8189 -12.577 77.5445 
2599 2 25.7344 -22.1263 -4.14878 
1055 1 72.2422 30.6045 20.9652 
3364 2 23.2805 72.5084 76.5401 
3366 1 23.0806 73.2884 76.0226 
2316 1 23.5089 -58.9638 22.3661 
3327 1 115.094 32.3021 -7.4182 
716 1 73.3664 -14.9164 49.7594 
715 2 74.1912 -15.2964 50.0619 
2010 1 23.3195 -17.8719 23.7463 
848 1 30.1686 -20.3194 -33.1893 
3326 1 114.549 33.2027 -6.33042 
100 2 120.634 27.7498 21.9002 
101 1 120.872 28.6659 21.7591 
3765 1 -19.8832 70.6589 75.5381 
2644 2 161.118 -18.4598 128.661 
2600 1 25.0736 -21.5784 -4.57228 
2601 1 25.2664 -22.5571 -3.43351 
1054 2 72.3972 29.815 20.4467 
2645 1 161.044 -19.3514 128.321 
2211 1 -15.2612 30.7038 -33.6278 
2073 1 -17.0922 -58.6853 19.9298 
2646 1 162.022 -18.2063 128.474 
4213 2 -11.8238 -62.163 -63.5006 
6065 3 -14.8642 79.7285 15.5059 
4214 1 -11.9822 -63.1009 -63.3935 
1262 1 32.2265 -21.8941 -11.4207 
1059 1 34.0439 -60.3475 18.3598 
370 2 -60.6044 74.4403 -9.94808 
2772 1 32.3099 169.208 44.5637 
4215 1 -11.536 -62.0704 -64.4088 
1057 2 34.0271 -59.4682 18.7376 
2770 2 33.0751 169.675 44.8995 
372 1 -60.429 73.5618 -10.2853 
2771 1 33.6105 168.995 45.3087 
1101 1 30.9874 30.6759 -9.49038 
1263 1 31.1247 -22.6984 -10.7641 
1099 2 30.4725 30.9473 -10.2502 
1261 2 31.3476 -21.8126 -11.0502 
51 1 79.6676 23.6373 -38.7848 
706 2 32.6643 25.7882 18.8706 
4017 1 32.4214 -109.369 18.8897 
707 1 32.2585 25.5291 18.0433 
4015 2 31.5588 -109.448 19.2971 
1577 1 170.874 79.4582 -32.3603 
1073 1 -11.4454 75.8324 48.0497 
4981 2 -13.661 -63.9156 23.1964 
2044 2 31.3825 -22.2541 -58.0358 
4983 1 -13.5146 -64.7196 22.698 
849 1 31.1056 -21.324 -32.5532 
847 2 30.9907 -20.7868 -33.3371 
708 1 31.9984 25.6031 19.5328 
4016 1 31.4496 -108.634 19.7875 
2099 1 -13.2442 33.8775 -31.0118 
2098 2 -12.4983 33.4173 -30.6268 
2446 2 -13.184 121.922 48.0482 
2448 1 -13.6072 121.071 47.9412 
4982 1 -14.3646 -63.4672 22.7272 
3797 1 32.5211 -23.3584 -31.6083 
2447 1 -13.8077 122.548 47.6799 
4024 2 -15.026 33.129 -6.00263 
4025 1 -15.1086 33.899 -6.56527 
2045 1 30.4668 -22.3031 -57.7615 
4034 1 -11.585 119.428 46.6001 
3730 2 83.8821 -19.8315 -36.4688 
1502 1 -9.4327 -15.602 97.1234 
3732 1 84.2258 -18.954 -36.3008 
1501 2 -10.284 -15.5018 96.6974 
2302 2 83.7634 -16.504 -11.0572 
3731 1 84.5509 -20.4217 -36.1215 
2303 1 84.397 -16.9163 -11.6443 
4276 2 38.2197 26.4011 -12.0268 
4277 1 37.9586 26.632 -11.1353 
2304 1 84.1331 -16.6239 -10.1825 
3724 2 82.3551 29.4509 -8.14907 
3263 1 87.2762 71.9756 -64.7577 
3262 2 86.6434 72.5547 -64.3327 
368 1 -92.9479 24.837 17.0841 
367 2 -92.4666 25.1788 17.8376 
3264 1 86.6744 72.307 -63.4086 
6133 4 39.249 29.5522 45.3989 
2979 1 40.4214 28.9607 17.3475 
255 1 45.48 26.7605 -63.1766 
4278 1 38.0622 25.4589 -12.0866 
5950 2 -3.51704 32.9394 46.1828 
2993 1 130.216 33.8427 69.1056 
5952 1 -3.0133 33.5936 45.6987 
369 1 -93.146 25.4144 18.4695 
3175 2 35.4778 27.3838 -9.47782 
1058 1 34.9047 -59.1213 18.5772 
5951 1 -3.07817 32.1101 45.9933 
2977 2 41.1589 28.7144 16.7891 
2994 1 129.631 32.4799 69.4091 
2978 1 41.241 27.7676 16.9037 
3177 1 36.3864 27.1553 -9.28161 
2790 1 42.3932 -23.3241 17.6556 
3031 2 34.6061 74.553 14.9268 
5650 2 43.9208 34.6211 72.123 
121 2 42.6583 30.3484 18.2826 
2992 2 129.394 33.352 69.0936 
123 1 43.4124 30.0069 17.802 
5640 1 -3.26256 -18.0784 15.5057 
122 1 41.9086 30.16 17.718 
3176 1 35.4712 27.5541 -10.4197 
6135 4 88.6591 24.0341 43.2411 
5639 1 -1.8181 -17.7698 15.1737 
1418 1 39.3167 126.844 18.5348 
5686 2 -8.7345 34.8106 -35.0415 
5839 2 36.1898 32.2256 19.0484 
4035 1 -10.2899 120.087 46.1765 
1419 1 38.2579 126.625 17.4753 
4818 1 91.1934 170.807 -11.0826 
1417 2 39.1391 126.976 17.6035 
3725 1 83.2904 29.3875 -8.34279 
338 1 -3.57189 -13.0051 69.7119 
5651 1 43.6993 34.3207 71.2415 
4817 1 91.0434 170.023 -9.79644 
5387 1 -45.7323 80.5298 43.2847 
4816 2 90.5362 170.419 -10.5049 
6132 4 43.6983 34.1245 15.5503 
5840 1 35.2486 32.1852 18.8792 
339 1 -4.8269 -13.2012 70.5356 
1287 1 -52.4822 35.1057 16.9526 
4934 1 -100.264 -59.6984 15.9432 
4933 2 -100.855 -59.3572 16.6142 
4935 1 -100.326 -59.3339 17.4113 
5841 1 36.4121 31.3548 19.3778 
337 2 -4.52331 -12.906 69.6772 
3726 1 81.9333 28.9236 -8.82744 
5652 1 44.8743 34.7054 72.1152 
4569 1 -97.3446 124.637 73.4635 
4568 1 -96.2596 125.691 73.5268 
5687 1 -8.89657 33.869 -34.9836 
5688 1 -7.78944 34.8994 -34.9183 
3508 2 -1.04076 -108.248 20.9026 
3510 1 -1.35254 -107.695 21.6184 
1576 2 171.731 79.1788 -32.6826 
4180 2 -51.3021 27.2532 -31.6799 
4181 1 -50.562 26.6822 -31.4738 
3509 1 -1.63685 -108.997 20.9013 
6068 3 35.9782 -16.1441 22.6999 
3025 2 41.4092 -16.8669 -4.6607 
3027 1 41.0492 -17.4028 -3.95397 
3026 1 41.8984 -16.1765 -4.2131 
838 2 83.7049 -17.5736 -4.64594 
839 1 84.3315 -18.2804 -4.80117 
4182 1 -51.4624 27.1111 -32.6128 
4033 2 -10.637 119.384 46.7259 
3394 2 -48.6742 78.9602 23.4267 
5602 2 39.5536 -105.756 73.8488 
6113 4 -1.64753 34.1547 -4.40799 
1578 1 172.056 79.9292 -33.1795 
3395 1 -48.2281 79.7622 23.1546 
533 1 86.1373 -59.5133 -4.74038 
532 2 85.8707 -60.206 -4.13592 
534 1 86.6198 -60.8013 -4.1077 
928 2 136.238 28.0107 -3.56055 
240 1 -10.651 26.0001 -5.66067 
930 1 136.613 28.8277 -3.23252 
2858 1 -3.46251 -20.2182 47.1274 
239 1 -10.7421 27.3639 -5.00982 
238 2 -10.6508 26.4329 -4.80692 
1072 2 -10.5342 76.0658 48.2274 
2478 1 38.9361 -61.9298 129.558 
138 1 35.6917 70.8585 74.1397 
840 1 84.0064 -16.8583 -5.20606 
5804 1 -3.01743 34.7276 -32.5083 
929 1 136.779 27.3241 -3.17125 
2859 1 -2.98982 -21.5439 47.6851 
3041 1 -3.11369 29.7232 21.3039 
2476 2 38.2169 -61.7728 130.169 
2477 1 38.5267 -61.058 130.726 
5412 1 -50.0699 -23.2021 22.1031 
5803 2 -3.84634 34.7365 -32.9869 
3040 2 -2.41609 29.6477 20.6529 
5336 1 -4.87342 28.2355 -6.44774 
4567 2 -97.0301 125.369 73.9944 
5805 1 -3.77063 34.0152 -33.6115 
1074 1 -10.0977 75.9922 47.3787 
6035 3 44.8183 74.657 20.9932 
3042 1 -2.80185 29.9909 19.8469 
5603 1 40.027 -106.163 74.5747 
2857 2 -2.67523 -20.6819 47.4129 
5335 2 -5.24078 27.7081 -7.15705 
5410 2 -50.0464 -22.9028 21.1943 
3240 1 -11.3966 -20.995 50.9311 
5411 1 -50.8566 -23.2378 20.8102 
833 1 -1.16352 -59.0891 -7.35541 
2862 1 128.911 24.042 77.8778 
2995 2 -56.4168 34.9541 49.5399 
2996 1 -55.5331 34.6676 49.7704 
2997 1 -56.9933 34.4054 50.0716 
834 1 -1.12836 -58.8616 -5.8591 
5337 1 -5.8341 28.3028 -7.61584 
1615 2 -15.3922 -4.11444 -9.82253 
2819 1 119.444 -5.0523 46.0754 
3288 1 -15.7165 45.6111 45.8971 
5151 1 69.8333 -46.9005 15.5001 
243 1 75.1603 39.862 -11.1165 
1616 1 -15.8988 -3.97264 -9.02282 
241 2 74.5027 39.6118 -10.4675 
3287 1 -16.5061 46.3455 44.8345 
1982 1 -65.171 84.1398 42.9095 
3506 1 73.8402 -2.71931 -37.4986 
6074 3 29.8478 -7.40066 -8.26563 
3526 2 -16.359 36.9175 16.2032 
3286 2 -15.7118 46.4069 45.3652 
6123 4 26.3696 42.778 18.5967 
1210 2 -21.3309 -51.3383 -37.4659 
242 1 73.6749 39.9254 -10.8315 
1071 1 -18.2383 46.4321 17.2211 
3408 1 163.595 -5.65487 -9.38509 
1212 1 -22.0227 -50.7791 -37.1125 
4036 2 -21.778 35.659 -35.9911 
1211 1 -20.6783 -51.3833 -36.7672 
3407 1 163.937 -7.07702 -8.9942 
1919 1 25.0211 -54.0572 18.2489 
466 2 28.7487 -3.73399 42.4131 
2249 1 -61.4406 -11.3823 -10.1898 
1257 1 71.9235 36.2704 18.8861 
1047 1 24.7721 -49.4487 -11.1273 
1045 2 24.6489 -48.6558 -11.6492 
3527 1 -15.4816 37.2959 16.2592 
3528 1 -16.9144 37.6412 15.9133 
3505 2 73.6023 -2.25925 -36.6937 
1981 2 -65.8641 84.7994 42.8829 
375 1 27.6223 -4.84188 -12.1641 
3406 2 163.494 -6.56317 -9.66971 
4038 1 -21.4408 36.2225 -36.6876 
1983 1 -66.6629 84.3014 42.7089 
467 1 29.4349 -4.12115 42.9566 
5873 1 73.0716 82.177 -10.2338 
6043 3 24.8532 -53.5255 42.5986 
3507 1 73.1107 -2.90411 -36.185 
5872 2 72.2179 82.326 -9.82738 
1918 2 24.39 -54.3785 18.8929 
2072 1 -15.8471 -58.0433 19.3557 
3119 1 26.2937 36.0638 48.6419 
3118 2 26.3627 35.5751 49.462 
2314 2 23.946 -58.5678 23.12 
2315 1 24.8426 -58.4121 22.8231 
3120 1 27.3033 35.4512 49.5891 
169 2 116.134 -5.27916 -6.74019 
1256 1 70.9496 37.073 19.7223 
3913 2 27.4024 -8.00736 19.5449 
3914 1 27.2749 -7.51615 20.3565 
2818 2 120.184 -5.18746 46.6667 
1255 2 71.7624 36.5709 19.7805 
1403 1 29.0146 -1.46207 -32.3296 
5474 1 -16.126 89.1256 50.8728 
1404 1 28.3279 -2.19441 -33.4628 
5990 1 75.2468 37.6398 -31.2167 
476 1 -64.8988 39.5457 -4.68967 
3134 1 26.3436 42.4068 -30.2529 
171 1 116.907 -5.05177 -7.25678 
170 1 115.809 -4.4406 -6.41177 
2066 1 73.5023 88.7209 49.3873 
477 1 -65.5291 40.561 -5.61915 
3915 1 26.9876 -8.8542 19.7092 
35 1 26.4763 -3.18461 46.9866 
36 1 25.8347 -2.49226 48.1702 
34 2 26.6633 -2.86535 47.8694 
5991 1 75.5044 38.2054 -32.5971 
5989 2 75.0267 37.5136 -32.1397 
1734 1 24.013 -2.12371 49.0039 
2067 1 73.4735 90.2211 49.5885 
1920 1 24.3636 -53.6964 19.5639 
2065 2 73.9441 89.4308 49.8533 
1733 1 23.7789 -3.54325 49.4751 
1732 2 24.0059 -3.03101 48.699 
475 2 -64.7052 40.3424 -5.18371 
2820 1 119.913 -4.77801 47.4883 
1402 2 29.187 -1.89384 -33.1664 
386 1 31.0562 36.9028 44.8611 
1617 1 -14.8871 -4.90874 -9.64896 
3512 1 32.5557 -55.9363 16.164 
3511 2 31.7749 -55.9015 15.6115 
3581 1 32.2139 91.7438 17.2233 
3582 1 31.408 90.8643 16.2911 
3580 2 32.1853 91.4221 16.3223 
4254 1 33.9791 39.1224 17.2388 
385 2 30.8653 37.1291 45.7714 
387 1 31.7131 37.0816 46.2133 
1272 1 -59.5361 40.0962 43.721 
6147 4 -11.4732 40.7091 45.1741 
4252 2 33.9656 38.1867 17.0376 
4253 1 33.6991 37.769 17.8566 
1270 2 -59.5885 40.1647 44.6743 
1124 1 79.4029 -49.3825 42.9549 
1271 1 -58.744 40.5319 44.9354 
2356 2 -12.0382 -48.3423 18.8244 
2358 1 -12.673 -48.8917 19.2842 
4578 1 124.684 35.9927 19.3278 
4577 1 125.071 37.1332 20.245 
2667 1 -57.7791 -6.65787 46.7364 
131 1 32.7629 140.11 23.3101 
2191 2 76.3656 -7.33294 75.2733 
2193 1 77.2587 -7.15539 74.9781 
2192 1 76.432 -7.37432 76.2273 
130 2 33.2355 139.77 22.5504 
132 1 33.1062 138.823 22.5917 
4803 1 -58.0666 42.585 22.6334 
2549 1 -13.7936 43.5648 21.1112 
5475 1 -14.6145 89.1677 50.7978 
2129 1 32.5823 -9.11198 -4.38988 
4927 2 33.9356 86.9166 -3.21293 
4801 2 -58.7812 42.3085 22.0596 
2665 2 -58.2056 -6.89862 47.5589 
2128 2 32.0962 -8.59467 -3.7478 
2666 1 -57.7955 -7.72675 47.8084 
2548 2 -13.8548 44.3302 20.5397 
4576 2 124.6 36.9403 19.4341 
4802 1 -58.5013 41.4582 21.7205 
4928 1 33.1839 86.442 -3.56779 
2550 1 -14.6783 44.7501 20.7882 
2357 1 -11.8072 -47.6619 19.4568 
4237 2 45.2629 90.9236 18.4164 
3359 1 43.7833 -57.7919 15.8024 
5631 1 39.0833 -8.17135 -36.1169 
4056 1 -3.82921 -57.0269 43.537 
3432 1 -56.6323 -98.4062 19.0664 
201 1 39.6112 45.4212 15.7123 
1986 1 39.6592 41.3075 17.6484 
3481 2 -49.2532 -3.68703 19.3689 
3431 1 -56.5658 -96.8981 19.1799 
2886 1 -0.928369 -0.841599 45.7606 
5584 2 43.5105 -5.12321 15.148 
3430 2 -56.0452 -97.6906 19.3101 
2363 1 -9.92192 40.2904 73.2568 
3358 2 43.7743 -56.9186 15.4106 
4717 2 43.8227 44.3911 43.1498 
4870 2 39.088 -53.9251 -37.4507 
2884 2 -1.50073 -0.0746618 45.7816 
1123 2 80.2766 -49.5952 42.6267 
4771 2 -0.735277 86.3621 -11.6189 
5842 2 41.5486 86.855 15.1164 
5723 1 -10.1281 87.6201 42.6025 
1075 2 80.7904 -0.264735 16.9193 
1128 1 -51.4798 -141.374 45.0275 
1076 1 80.1708 -0.581759 17.5765 
872 1 -2.42901 -4.87806 45.7159 
4871 1 39.8264 -53.8421 -38.0542 
1127 1 -50.5147 -140.827 43.9973 
4055 1 -3.33018 -57.8273 44.7212 
1286 1 -51.3917 36.118 16.6734 
4054 2 -4.0836 -57.3254 44.4102 
5678 1 -10.392 -9.90004 15.2135 
3482 1 -50.1267 -3.84038 19.0088 
1984 2 39.6445 42.2219 17.9309 
5724 1 -10.9993 88.0951 43.7459 
334 2 37.2669 -3.72872 17.1642 
1285 2 -52.3072 36.0467 16.9437 
1126 2 -51.4414 -141.02 44.1388 
5679 1 -10.4807 -11.2933 15.799 
4239 1 44.893 90.1375 18.8184 
5624 1 -48.4603 46.2047 43.1984 
4773 1 -1.31348 85.9112 -11.0035 
873 1 -1.85271 -6.26261 45.509 
5586 1 43.5775 -4.22712 15.4778 
871 2 -1.67644 -5.42585 45.9391 
5843 1 42.0787 87.6518 15.0985 
1985 1 39.0124 42.6429 17.3483 
5677 2 -10.7477 -10.772 15.0419 
4772 1 -1.12791 87.2284 -11.7264 
336 1 36.5889 -3.60583 17.8286 
5629 2 39.1183 -8.97131 -35.5924 
4718 1 44.1539 44.3779 44.0478 
4719 1 44.5219 44.8029 42.6421 
5851 2 88.0225 39.302 -9.42571 
5853 1 87.4229 39.5211 -10.139 
1125 1 80.2816 -50.55 42.559 
1077 1 80.9879 -1.0339 16.3849 
5852 1 87.9904 38.3469 -9.37014 
5630 1 39.1491 -9.67912 -36.236 
5722 2 -10.637 88.3725 42.9044 
4872 1 38.3254 -54.0363 -38.0183 
335 1 36.8624 -4.30006 16.5114 
5604 1 40.144 -105.074 73.5292 
2198 1 -4.60438 39.8573 19.0878 
23 1 -3.73196 -0.273144 -34.7765 
4712 1 37.386 45.2551 -5.50333 
2364 1 -8.82315 39.413 73.8177 
5607 1 -50.2213 -47.2534 -3.31259 
4990 2 40.4797 -0.00745349 49.1014 
4713 1 38.004 45.6167 -6.8372 
2197 2 -5.09219 39.5382 19.847 
4044 1 -0.393491 38.6296 77.7539 
4932 1 80.9942 -0.701076 -30.9176 
116 1 -0.583504 -52.1932 77.643 
2362 2 -9.24611 40.2637 73.9341 
5725 2 -7.79652 85.808 23.7305 
87 1 81.7524 134.084 21.5693 
4922 1 39.6505 -6.35688 21.2179 
2237 1 -53.4455 37.5411 22.8206 
824 1 37.7626 -3.7865 22.9557 
4040 1 132.728 134.688 -32.9039 
832 2 -0.866312 -58.4674 -6.69104 
193 2 -56.8601 -56.219 21.9066 
1755 1 89.4714 -0.843768 -59.9519 
1865 1 -46.9904 -9.8685 -33.6833 
195 1 -56.0233 -55.9584 21.5217 
4992 1 39.5561 -0.249632 49.1681 
5726 1 -8.28804 86.5318 23.3422 
117 1 -1.84708 -52.1421 76.8108 
4864 2 82.5124 -9.42224 -7.2816 
4866 1 82.3891 -10.3215 -7.58545 
4711 2 37.6234 44.8839 -6.35306 
5963 1 41.6815 42.8063 50.3322 
1753 2 89.0479 -1.41169 -59.3082 
115 2 -1.42263 -51.7388 77.5681 
194 1 -56.7007 -57.0956 22.2564 
3054 1 -97.3317 132.806 -3.40573 
4921 2 38.9808 -5.72743 21.4854 
1754 1 88.1417 -1.10491 -59.2768 
1864 2 -47.2831 -9.01489 -33.364 
3053 1 -95.8311 132.899 -3.58242 
3052 2 -96.5925 133.404 -3.29688 
823 2 36.8255 -3.7828 22.7605 
4689 1 -0.545191 -5.53705 20.018 
2236 2 -53.274 36.654 22.5046 
86 1 80.8757 134.041 22.8028 
85 2 81.7845 134.152 22.5235 
4039 2 133.385 135.297 -32.5656 
2346 1 -2.72109 -9.06294 -4.71865 
825 1 36.4983 -4.59887 23.139 
2344 2 -3.16582 -8.88911 -3.88905 
2238 1 -53.3074 36.7283 21.5509 
6010 3 82.983 42.4277 20.3277 
1792 2 34.2929 90.4738 23.6276 
4930 2 81.8808 -0.516714 -31.2279 
22 2 -4.44195 -0.909447 -34.6913 
4041 1 133.552 135.898 -33.2913 
24 1 -4.77498 -0.779902 -33.8033 
5962 2 41.7649 43.5793 50.8905 
1794 1 35.1063 90.6003 23.1391 
2345 1 -2.53705 -8.37464 -3.38288 
4923 1 38.7805 -5.96078 22.3918 
1866 1 -47.7783 -8.64271 -34.0937 
3483 1 -49.2463 -2.75666 19.5938 
4865 1 83.3544 -9.15723 -7.65165 
4001 1 -0.00875208 85.1737 48.5999 
2199 1 -5.29719 38.6275 19.6351 
2215 2 72.2175 33.8544 52.5576 
2217 1 73.0324 33.3567 52.4908 
6091 4 28.8685 32.6408 25.3382 
2216 1 71.9385 33.9808 51.6507 
2874 1 -20.1728 28.5212 -2.41535 
3606 1 -16.0483 -13.1881 78.2446 
2872 2 -21.0333 28.2806 -2.072 
2873 1 -20.8597 27.5467 -1.48242 
1436 1 -108.056 -58.6953 -1.22218 
52 2 29.1577 26.7188 -2.58431 
3485 1 -63.0826 28.5261 51.8568 
54 1 29.1207 26.5532 -1.64227 
4258 2 69.6213 25.2388 -28.1576 
53 1 29.0669 25.8537 -2.98378 
2642 1 24.5142 23.7184 52.3155 
869 1 24.6089 30.4525 52.1761 
868 2 24.9118 31.357 52.0964 
3486 1 -63.4757 29.8942 51.3415 
3484 2 -63.8264 29.02 51.5118 
4260 1 68.8682 25.7741 -28.4075 
870 1 25.7811 31.3551 52.497 
2036 1 23.8601 -108.247 25.85 
3019 2 25.438 -20.9927 4.87432 
3020 1 26.3447 -21.098 4.58616 
6128 4 27.8837 -21.3448 58.2264 
4973 1 75.3024 25.2099 30.848 
2507 1 -22.3339 32.0377 84.4388 
3021 1 24.9471 -21.6344 4.36112 
2038 2 -112.819 33.2178 31.4216 
2506 2 -22.5601 31.4035 83.7584 
2219 1 118.425 25.0831 29.5138 
2039 1 -112.221 32.4789 31.5358 
2508 1 -21.8495 31.472 83.1208 
5375 1 29.8983 32.1972 -25.3434 
423 1 28.1353 73.6121 84.206 
5129 1 24.1054 24.0993 -25.3137 
2218 2 118.421 24.8941 28.5754 
4443 1 -15.8459 26.0809 27.5432 
2723 1 26.2073 -14.8302 -24.8432 
4853 1 -18.6091 80.0895 -22.7675 
4854 1 -17.3054 80.0605 -23.5366 
421 2 28.4542 74.3697 83.7157 
5376 1 29.7127 30.7876 -24.8233 
1727 1 73.4518 31.285 2.90911 
5374 2 30.3294 31.5197 -24.8224 
422 1 28.3517 75.1062 84.3184 
4852 2 -18.1108 79.5636 -23.3931 
2220 1 119.225 25.2951 28.2459 
3470 1 -66.2637 -17.6782 3.56144 
1728 1 72.7977 29.9367 2.69444 
1726 2 73.5025 30.4965 2.3688 
6 1 -22.7097 -18.1101 30.824 
3471 1 -65.176 -17.8677 4.59729 
4 2 -22.8251 -18.2227 29.8805 
2722 2 25.56 -14.6147 -25.5146 
3469 2 -65.3193 -17.5923 3.69182 
2228 1 -63.4041 78.4155 -0.70592 
2229 1 -63.8475 77.6518 0.523764 
5 1 -22.8057 -17.3328 29.5284 
5960 1 73.0643 -23.0711 58.3095 
2724 1 25.9069 -15.0055 -26.3165 
1083 1 28.7211 27.0055 4.96295 
2037 1 23.7906 -107.83 27.3038 
4259 1 69.4092 24.921 -27.28 
5130 1 25.423 24.0343 -26.0564 
4441 2 -16.7376 26.3394 27.3102 
2423 1 71.8477 81.8469 26.7338 
4442 1 -17.0058 26.9341 28.0107 
5479 2 30.0017 81.2862 30.8991 
4627 2 26.3456 81.3877 32.8229 
5115 1 -61.2907 -18.2372 -48.7341 
2621 1 -62.7519 34.1663 54.9729 
2620 2 -62.1941 33.3905 54.9167 
2035 2 23.2403 -108.062 26.5555 
1081 2 28.5388 27.8242 5.42407 
2040 1 -112.267 33.9921 31.533 
2227 2 -64.1807 78.0554 -0.277683 
2424 1 71.4478 81.556 28.1647 
812 1 -18.1468 77.8502 113.918 
2622 1 -62.209 33.1509 53.9901 
1189 2 -15.3547 -61.9532 5.33697 
1082 1 27.5835 27.8717 5.46018 
5128 2 24.5631 23.6173 -26.0025 
1191 1 -15.5711 -61.6194 4.46633 
2831 1 74.2363 118.86 32.7215 
1194 1 33.6111 -17.0399 23.967 
2046 1 31.8176 -21.7697 -57.3342 
3238 2 -12.0197 -20.9178 51.6537 
2100 1 -12.8918 32.7271 -30.093 
1701 1 33.5459 71.2111 -1.95272 
351 1 -14.2753 78.012 24.6353 
349 2 -14.274 78.8852 25.0275 
3239 1 -11.6797 -20.2 52.1881 
350 1 -15.19 79.0489 25.2519 
2708 1 77.3881 26.2399 55.3481 
5113 2 -60.4085 -17.9956 -48.4521 
1707 1 78.2197 -65.0481 -25.2324 
2342 1 32.8679 30.2061 85.1996 
1706 1 79.0342 -66.3229 -25.174 
5808 1 -14.1742 72.6514 -22.0649 
845 1 124.949 23.7517 -25.219 
4184 1 -58.6985 71.1477 30.6902 
5885 1 78.41 -12.4647 31.7499 
5884 2 78.1531 -13.1729 31.1593 
4624 2 33.2784 32.206 -27.1283 
2341 2 33.1142 30.0924 86.1176 
5886 1 78.9744 -13.6139 30.9419 
2707 2 76.857 25.4439 55.3701 
844 2 125.009 24.1043 -26.1068 
4626 1 32.5497 31.9483 -27.693 
4625 1 32.9206 32.9023 -26.5775 
2343 1 32.3789 29.6187 86.5065 
4183 2 -58.0986 70.4044 30.6288 
1705 2 78.2296 -65.9548 -25.5392 
4844 1 30.8183 80.7834 28.4382 
3976 2 123.968 30.3867 56.4939 
4845 1 31.8968 80.8466 29.4988 
2709 1 77.4192 24.7696 54.9886 
1190 1 -14.8296 -62.736 5.17023 
4843 2 31.7667 80.8473 28.5504 
5806 2 -13.6365 73.1232 -21.4289 
3978 1 123.096 30.7596 56.6216 
5481 1 30.9383 81.1479 31.0402 
3977 1 124.249 30.7195 55.6414 
4974 1 76.4421 25.0287 29.8682 
4972 2 76.1974 24.8771 30.781 
5728 2 -100.567 -14.4236 -2.87036 
5730 1 -100.771 -13.71 -2.26562 
5729 1 -99.9892 -15.0023 -2.37296 
1193 1 34.3846 -17.7947 25.0271 
4716 1 -45.7481 77.8995 -56.7929 
1192 2 34.4926 -17.1575 24.321 
4208 1 37.9111 25.9973 52.2319 
3768 1 -7.75039 27.9723 -29.8452 
5982 1 39.8891 80.929 51.7563 
4209 1 38.1118 24.7728 53.0992 
4207 2 38.3552 25.1496 52.2536 
3396 1 -48.7685 79.048 24.3752 
5304 1 42.5497 -18.6824 52.2162 
5303 1 43.2911 -19.3968 51.1063 
5980 2 39.5883 80.9063 52.6647 
5302 2 42.4572 -19.3881 51.5761 
1797 1 45.1566 -12.9829 -84.2555 
272 1 -57.0187 33.9204 24.8871 
4395 1 38.7059 30.4807 -55.6838 
4393 2 38.5125 31.4066 -55.5374 
5402 1 -3.39939 77.4949 25.9939 
271 2 -56.524 34.0846 25.6899 
5258 1 -48.2929 34.9621 -57.322 
5401 2 -3.22595 76.575 25.7941 
672 1 132.316 23.9129 -29.7548 
1655 1 -1.6324 23.989 107.209 
2813 1 81.8147 -65.9682 -55.3491 
160 2 86.6192 -21.5553 -55.6134 
162 1 86.9685 -20.7932 -56.0753 
161 1 85.6794 -21.5355 -55.7942 
2812 2 80.877 -66.0741 -55.189 
3767 1 -7.09818 27.8086 -28.4889 
5981 1 39.2926 80.0056 52.7972 
3766 2 -7.94372 27.7521 -28.934 
500 1 -52.0738 126.556 1.77243 
6099 4 38.7601 -15.83 28.2583 
501 1 -50.8283 127.301 2.20265 
499 2 -51.7488 127.433 1.9756 
3362 1 -10.0624 31.8324 32.2178 
2440 2 44.7564 -14.6602 27.7391 
4467 1 -53.9861 -14.5328 1.15276 
3029 1 44.425 26.6311 29.0835 
4318 2 -2.67758 -20.3617 58.0209 
3403 2 80.8502 27.5764 29.1535 
1814 1 35.013 -19.1318 -48.7119 
5450 1 85.3805 76.8785 -21.2215 
4465 2 -54.831 -14.093 1.05847 
3404 1 81.423 28.3421 29.111 
3405 1 80.7844 27.3775 30.0875 
4911 1 37.4131 30.0082 -25.4684 
4909 2 36.923 29.5247 -24.8033 
4910 1 36.9395 30.0926 -24.0329 
3067 2 86.601 77.0092 29.4302 
3068 1 86.4183 76.1176 29.7267 
3220 2 40.4698 121.23 -24.3803 
704 1 39.1609 -19.079 -22.4229 
1585 2 43.8987 34.4395 5.02868 
3221 1 39.9198 120.718 -24.9733 
3479 1 36.9457 23.5494 54.4487 
8 1 -4.03406 78.5629 -24.195 
4591 2 82.1286 25.1636 55.4613 
4320 1 -2.53211 -19.4287 57.8642 
3069 1 85.8189 77.2644 28.941 
310 2 -6.45938 72.1368 -25.4924 
4466 1 -55.4768 -14.7958 1.1304 
5718 1 -52.7855 31.4367 30.0959 
312 1 -6.65353 71.4695 -24.8342 
705 1 38.0333 -18.2729 -23.0318 
5717 1 -53.7494 31.4012 31.2627 
9 1 -2.85028 79.4216 -23.8036 
5716 2 -52.8545 31.646 31.0273 
1948 2 -5.13182 -22.344 -49.8192 
703 2 38.5683 -18.3495 -22.2417 
3030 1 44.2126 27.5197 27.8763 
7 2 -3.77118 79.4733 -24.0596 
3222 1 41.2352 120.677 -24.225 
1949 1 -5.66327 -21.7762 -49.2611 
1561 2 131.727 33.6402 4.72113 
4592 1 81.557 25.8287 55.8449 
320 1 42.6439 77.029 -25.0346 
311 1 -5.81173 71.727 -26.0658 
4593 1 83.0151 25.4835 55.6289 
846 1 125.945 24.2513 -26.2433 
319 2 43.5273 77.3366 -24.8315 
5417 1 36.7987 34.3081 82.5596 
6053 3 88.4876 70.9856 57.4508 
1223 1 44.5916 -21.4373 -0.018832 
3361 2 -9.69945 31.3075 31.5044 
4831 2 -1.21257 29.0595 54.5115 
3028 2 44.036 26.6397 28.2089 
1563 1 132.353 33.2945 4.08418 
2442 1 45.4742 -15.2652 27.5521 
3363 1 -10.4012 30.699 31.2732 
4319 1 -2.81576 -20.4277 58.9658 
4832 1 -1.54462 29.6358 55.1999 
4833 1 -0.371906 29.4433 54.262 
2814 1 80.7869 -66.0083 -54.2383 
4120 2 87.8145 24.9488 -26.0131 
4121 1 87.4088 25.058 -26.8731 
2441 1 44.2372 -15.1039 28.4098 
321 1 43.5986 77.2507 -23.8808 
4122 1 88.3747 25.7184 -25.9125 
1815 1 34.2853 -20.2992 -49.344 
2260 2 -3.48286 32.2256 53.4574 
5695 2 42.6679 -16.488 -22.2891 
5403 1 -2.58941 76.3018 26.4547 
4394 1 38.5012 31.5018 -54.585 
5696 1 41.7847 -16.7298 -22.0102 
899 1 -52.2899 -17.2974 0.233878 
1587 1 44.2064 34.5268 4.12649 
1950 1 -5.74675 -22.9983 -50.1508 
898 2 -51.797 -17.9469 -0.267562 
1222 2 45.1579 -21.7989 -0.700567 
1813 2 34.8717 -19.5714 -49.5504 
2261 1 -2.7282 32.4075 54.0174 
5451 1 85.6949 78.1996 -21.8907 
5449 2 86.0436 77.5676 -21.262 
5608 2 -0.207878 28.0638 30.4001 
1562 1 130.88 33.2965 4.43676 
2262 1 -4.23967 32.4859 53.9825 
5697 1 43.2467 -16.9885 -21.714 
900 1 -51.078 -17.4519 -0.660208 
4127 1 -0.90262 28.8703 -21.2608 
273 1 -56.837 33.421 26.3046 
5877 1 -15.8183 -3.58475 79.6198 
3133 2 25.7248 41.83 -29.8049 
3079 2 166.054 93.0826 -3.15445 
5876 1 -16.2947 -2.15053 79.5308 
1435 2 -107.748 -57.7944 -1.12451 
710 1 114.488 -7.81898 24.9052 
228 1 24.6651 42.0459 -1.16783 
4400 1 26.4355 -55.0816 -1.94106 
3135 1 26.0622 40.948 -29.9615 
3024 1 -22.0255 -96.3204 52.5561 
5473 2 -15.3386 89.0329 51.4092 
5875 2 -16.1084 -2.8487 80.1586 
3080 1 165.277 93.0925 -2.59609 
5250 1 23.0375 -51.5377 24.4061 
711 1 114.943 -9.02418 25.7003 
3022 2 -22.3544 -95.4578 52.8092 
4401 1 25.2428 -55.5471 -2.74908 
709 2 114.895 -8.68009 24.8084 
4399 2 26.0391 -55.0194 -2.81012 
1790 1 26.3182 93.6542 -1.4176 
2450 1 28.3748 38.5014 26.1742 
4963 2 -22.3135 -57.0111 -27.0391 
2422 2 71.4673 82.2554 27.5114 
6080 4 -20.4016 46.1644 27.1635 
2562 1 119.484 -48.8094 -26.979 
3311 1 75.4392 83.527 1.88181 
4130 1 75.6259 84.9991 -23.0263 
4131 1 75.6617 83.8186 -22.0791 
5595 1 30.043 93.3406 56.0456 
2449 2 27.885 39.1966 26.6136 
4129 2 75.4166 84.0667 -22.9706 
3597 1 -20.3877 93.1478 31.7117 
5594 1 28.5421 93.4124 56.2299 
4216 2 30.2512 39.6787 31.1693 
5027 1 27.2781 -96.9295 59.6701 
5026 2 26.3492 -97.0215 59.4579 
2560 2 118.922 -48.7902 -26.2042 
4188 1 -64.0947 40.3641 59.9461 
1720 2 72.5163 37.208 5.15045 
5552 1 -61.7 87.4151 -27.2612 
5480 1 29.8693 82.2196 31.065 
3595 2 -20.2793 92.9129 30.7901 
4176 1 28.4859 138.86 4.58049 
4411 2 -20.5705 85.7913 3.63617 
4175 1 29.5129 139.692 5.31935 
2561 1 118.099 -48.4119 -26.5138 
3440 1 167.276 43.7446 56.131 
4218 1 29.614 40.0482 31.7805 
1476 1 162.443 -10.2658 31.2969 
3312 1 73.9462 83.7278 1.73174 
1721 1 72.8919 37.5185 4.32655 
1722 1 73.2668 37.1195 5.73798 
1148 1 -21.8924 -47.5887 84.2945 
1147 2 -22.7604 -47.2325 84.105 
4993 2 -66.2466 43.5596 -52.5503 
357 1 -17.5312 89.2485 -23.9361 
1475 1 161.07 -10.6047 31.8354 
1474 2 161.603 -10.6461 31.0416 
3310 2 74.6814 83.2253 1.38083 
2966 1 -22.2884 -104.909 84.3079 
4964 1 -21.5058 -57.522 -27.0924 
3441 1 167.223 44.1687 54.6787 
2225 1 -20.0962 -51.6361 2.82534 
2967 1 -22.676 -104.497 82.9035 
2226 1 -19.7178 -52.8905 3.58386 
356 1 -16.0368 89.0635 -23.7791 
1437 1 -107.934 -57.5748 -0.21153 
4995 1 -65.2924 43.5476 -52.6255 
2224 2 -19.4049 -52.0113 3.37088 
5028 1 26.3358 -97.5631 58.6688 
3596 1 -19.7399 92.1224 30.8057 
355 2 -16.7007 89.7221 -23.9837 
4828 2 -19.0121 37.6864 29.0052 
4994 1 -66.5103 44.3772 -52.9726 
2451 1 27.4924 38.7693 27.3748 
4413 1 -21.4442 85.8306 3.24727 
227 1 24.585 42.4668 0.284179 
4829 1 -19.5686 37.0282 28.5888 
4412 1 -20.7016 86.0522 4.54773 
4830 1 -19.5974 38.1527 29.602 
226 2 24.061 42.0986 -0.427219 
4174 2 28.6052 139.704 5.01577 
4628 1 26.5976 82.2452 32.4804 
4217 1 30.448 40.3949 30.5656 
3023 1 -21.7261 -95.1425 53.4588 
940 2 77.3608 -0.203755 -2.67227 
5553 1 -60.7334 88.2049 -28.1179 
5615 1 -57.8616 37.1054 -29.0079 
4088 1 30.8453 -104.398 25.4564 
941 1 76.4203 -0.309874 -2.81505 
4087 2 31.7128 -104.005 25.3622 
2130 1 31.938 -9.19922 -3.02273 
4929 1 33.651 87.2024 -2.34483 
1467 1 -60.3014 -5.34002 28.7061 
3439 2 167.787 44.1844 55.4519 
1966 2 -13.3575 139.784 -24.6307 
2384 1 31.9413 135.662 31.6768 
3981 1 32.9522 -105.311 55.0516 
5719 2 79.0228 -10.6086 59.0752 
1633 2 79.7 46.7872 -22.4421 
5551 2 -60.8551 87.864 -27.2318 
1635 1 79.2271 46.6495 -21.6213 
3488 1 -59.3283 45.7153 5.52673 
3979 2 33.2724 -104.453 54.7745 
3980 1 32.6511 -103.831 55.1535 
2383 2 31.9498 136.021 32.5638 
4089 1 31.9994 -103.838 26.2601 
5720 1 79.7757 -10.4545 58.5046 
4869 1 33.9451 42.9148 28.4169 
1967 1 -12.7468 140.147 -25.272 
5318 1 32.8231 -4.81714 -27.5184 
5317 2 32.7839 -3.96449 -27.0852 
5319 1 31.8669 -3.86781 -26.8282 
1465 2 -59.9935 -5.60309 29.5734 
5721 1 78.4473 -9.85943 58.9209 
3613 2 79.8459 87.4273 26.6032 
2385 1 31.7122 136.942 32.4517 
4868 1 34.246 41.5358 28.9644 
753 1 -58.3328 38.9446 30.4304 
751 2 -58.7582 38.4795 31.1508 
1968 1 -13.8774 139.151 -25.1263 
1466 1 -59.2033 -6.11553 29.4024 
4342 2 31.857 -8.52213 -26.2334 
4343 1 31.3962 -7.81425 -26.6837 
752 1 -59.6534 38.8183 31.1599 
2889 1 125.479 -49.8254 -0.691434 
4344 1 32.6114 -8.09641 -25.8261 
3615 1 79.5948 87.2947 27.5173 
6108 4 33.7615 -53.8807 2.12187 
3487 2 -59.8225 45.0742 5.01578 
3489 1 -59.4053 45.0809 4.15431 
3143 1 -8.38669 -48.4451 -56.5922 
207 1 -0.225228 -47.133 52.528 
2878 2 -46.2788 82.6862 -55.4115 
3993 1 -3.09969 -5.98867 25.7996 
3142 2 -7.73467 -47.9124 -56.137 
1916 1 90.7547 42.3517 -55.3766 
2880 1 -45.9612 83.4994 -55.804 
4203 1 84.0331 129.504 -1.48877 
4043 1 -0.191426 38.825 79.2415 
5257 2 -48.6015 35.5578 -56.6392 
5259 1 -48.7224 36.3947 -57.0876 
4403 1 -6.09487 -5.67879 78.4045 
2879 1 -47.0498 82.4548 -55.9294 
5616 1 -57.0148 38.1659 -29.6788 
5605 2 -49.7172 -47.4268 -2.51759 
1915 2 90.5562 43.2703 -55.1951 
5062 2 -51.5075 43.4447 -0.981663 
4202 1 83.6189 130.043 -2.84175 
4201 2 83.3104 129.939 -1.94157 
3144 1 -7.95791 -47.9999 -55.2103 
2352 1 85.3807 -101.405 -28.141 
205 2 -0.681299 -47.2447 51.6939 
6024 3 -1.53595 -2.56476 -30.1442 
5606 1 -49.4939 -48.3559 -2.57284 
5964 1 41.1028 43.4566 51.5708 
5614 2 -56.9528 37.3478 -29.1858 
4042 2 -0.813222 38.4795 78.601 
1793 1 34.501 90.7572 24.5178 
5727 1 -8.23568 85.6396 24.5642 
4404 1 -6.45973 -4.30731 78.9316 
4402 2 -6.70664 -4.95477 78.2713 
2887 2 126.105 -49.1364 -0.911786 
5063 1 -51.6356 44.3912 -0.919454 
2351 1 85.8377 -100.104 -27.515 
761 1 -10.1002 -52.2696 3.54701 
5418 1 37.7106 35.2619 83.3016 
1586 1 43.3547 35.2137 5.17274 
2901 1 -50.0983 82.4342 -49.5597 
1092 1 35.3767 93.768 -23.7726 
5416 2 36.9353 35.238 82.7407 
3270 1 -8.30546 -57.7939 -22.2248 
1442 1 -8.23412 46.0702 28.8207 
1155 1 -3.82572 -54.8876 141.244 
1441 2 -7.79304 45.8188 28.0092 
5124 1 44.6717 46.1277 0.8647 
1527 1 -51.5758 -11.3367 83.7738 
2888 1 125.861 -48.4008 -0.350325 
5168 1 37.6307 87.4207 -0.2743 
918 1 44.8625 -6.01945 59.0738 
5422 2 -5.37956 -8.22919 -22.1962 
2350 2 85.096 -100.708 -27.5492 
1443 1 -7.0108 46.3698 27.9807 
5263 2 -46.3037 39.7429 2.28219 
3992 1 -3.18519 -5.47409 27.2208 
1241 1 38.5159 -0.631038 86.2568 
1015 2 86.3973 -94.1139 27.0552 
760 2 -10.2498 -53.1063 3.98724 
762 1 -10.9281 -53.5344 3.46489 
5122 2 45.3108 46.6913 0.428738 
3424 2 43.2321 42.3742 -52.6343 
5619 1 44.5972 -56.3935 5.39925 
1526 1 -51.6933 -9.82832 83.7198 
2740 2 -3.20317 43.2933 -22.1149 
3321 1 -0.876652 -10.7883 30.136 
3991 2 -3.70564 -5.89106 26.5342 
1091 1 35.8372 92.5199 -24.4952 
3319 2 -1.29153 -11.3635 29.4932 
5091 1 87.4025 -11.1208 53.5127 
5089 2 86.8117 -11.1794 54.2636 
1017 1 86.8768 -94.311 26.2506 
4384 2 40.1427 -5.62845 32.0695 
5385 1 -10.5426 41.0749 32.8011 
5080 2 82.0167 -2.76826 -23.9869 
5499 1 42.7277 -0.979868 29.0317 
2900 1 -49.7865 83.9156 -49.5448 
2899 2 -49.4918 83.0764 -49.191 
2741 1 -3.86673 43.9112 -22.4218 
3702 1 -5.89844 45.2249 30.9821 
3701 1 -4.47078 45.7272 30.9445 
4385 1 39.9981 -5.22734 31.2125 
3268 2 -7.78805 -57.6294 -21.4364 
5265 1 -46.9217 39.0154 2.21047 
5498 1 42.6336 -1.52208 27.6213 
4152 1 -0.635298 42.89 31.9261 
3700 2 -4.99009 44.929 31.0419 
5167 2 36.8438 87.7099 0.187619 
1637 1 -10.4242 -8.47858 55.9013 
5497 2 43.0977 -1.64366 28.4496 
6019 3 35.7637 -10.7617 -27.5098 
450 1 -8.23768 43.9717 -53.4004 
5169 1 36.9244 88.6629 0.225727 
90 1 36.3658 84.2202 3.53412 
4446 1 -10.858 38.2027 -21.7803 
3683 1 82.7329 133.209 -50.2284 
3320 1 -1.99288 -10.8335 29.1143 
2288 1 40.7961 91.2377 2.02471 
2742 1 -2.93922 42.8146 -22.9006 
88 2 35.8003 83.4482 3.55505 
89 1 35.9592 83.0116 2.71819 
4241 1 38.713 42.9761 4.09032 
4894 2 -49.3372 40.2374 -51.3606 
448 2 -8.62777 43.2389 -53.8769 
5423 1 -5.52043 -7.30998 -21.9694 
1917 1 90.8655 43.4104 -54.3002 
916 2 44.4362 -5.56508 58.3471 
2287 2 40.5102 90.4519 1.55882 
1638 1 -9.79184 -7.85814 54.6736 
3614 1 80.8029 87.4138 26.6128 
3340 2 -5.82175 38.8281 29.2243 
5424 1 -6.05992 -8.42438 -22.8406 
3426 1 44.1827 42.3375 -52.5281 
3682 2 83.2375 132.414 -50.3972 
4895 1 -49.2175 40.4417 -50.4332 
4896 1 -49.2115 41.0738 -51.8088 
1708 2 81.9709 90.614 5.62206 
1234 2 88.5048 -55.9885 -25.3068 
3425 1 43.0468 43.2949 -52.8195 
1236 1 88.3676 -55.0861 -25.0184 
1235 1 87.7657 -56.1699 -25.8874 
3269 1 -6.88151 -57.6138 -21.7433 
2289 1 39.7488 90.1448 2.05088 
3684 1 83.9376 132.694 -50.9867 
3341 1 -5.95738 39.186 28.347 
1636 2 -9.80192 -8.65962 55.1969 
3342 1 -5.02078 39.2504 29.5347 
4867 2 34.4423 42.4629 29.0988 
449 1 -9.2376 43.6489 -54.4902 
4386 1 39.8766 -4.95641 32.697 
1090 2 35.7047 93.46 -24.6175 
1525 2 -51.9945 -10.594 84.209 
4240 2 38.5819 42.7587 3.1674 
4242 1 37.7039 43.0828 2.96685 
5081 1 81.8932 -3.01855 -23.0713 
5082 1 81.4459 -3.36039 -24.4766 
917 1 44.5906 -6.12797 57.5885 
5064 1 -51.2305 43.1818 -0.103963 
5090 1 86.0585 -11.6725 53.9383 
5896 2 45.6291 -9.82761 58.3457 
4902 1 45.1891 -0.864576 84.7638 
4150 2 -0.245169 43.5376 32.5131 
